 vasp.6.4.3 19Mar24 (build Apr 09 2025 20:43:19) complex

 executed on             LinuxIFC date 2025.04.14  10:33:39

 INCAR:
   PREC = Accurate
   IBRION = 2
   NSW = 100
   NELMIN = 5
   ISIF = 2
   ENCUT = 520
   EDIFF = 1.000000e-08
   EDIFFG = -1.000000e-5
   ISMEAR = 0
   SIGMA = 0.05
   IALGO = 38
   LREAL = .FALSE.
   ADDGRID = .TRUE.
   LWAVE = .FALSE.
   LCHARG = .FALSE.
   NCORE = 9

 POTCAR:    PAW_PBE Bi_d 06Sep2000
 POTCAR:    PAW_PBE Se 06Sep2000
 POTCAR:    PAW_PBE O 08Apr2002
 POTCAR:    PAW_PBE S 06Sep2000
 POTCAR:    PAW_PBE Bi_d 06Sep2000
   VRHFIN =Bi:

   TITEL  = PAW_PBE Bi_d 06Sep2000
   POMASS =  208.980; ZVAL   =   15.000    mass and valenz
   ENMAX  =  242.839; ENMIN  =  182.129 eV

   TITEL  = PAW_PBE Se 06Sep2000
   POMASS =   78.960; ZVAL   =    6.000    mass and valenz
   ENMAX  =  211.555; ENMIN  =  158.666 eV

   TITEL  = PAW_PBE O 08Apr2002
   POMASS =   16.000; ZVAL   =    6.000    mass and valenz
   ENMAX  =  400.000; ENMIN  =  300.000 eV

   TITEL  = PAW_PBE S 06Sep2000
   POMASS =   32.066; ZVAL   =    6.000    mass and valenz
   ENMAX  =  258.689; ENMIN  =  194.016 eV

  PAW_PBE Bi_d 06Sep2000                :
  PAW_PBE Se 06Sep2000                  :
  PAW_PBE O 08Apr2002                   :
  PAW_PBE S 06Sep2000                   :

 POSCAR: generated by phonopy
  positions in direct lattice
  velocities in cartesian coordinates

 exchange-correlation table for PE
   RHO(1)=    0.500       N(1)  =     2000
   RHO(2)=  100.500       N(2)  =     4000

 ion  position               nearest neighbor table
   1  0.249  0.249  0.852-  24 2.36  28 2.36  25 2.36  30 2.36  13 3.72   5 3.79   7 3.79   6 3.79
                             8 3.79
   2  0.751  0.249  0.852-  24 2.36  29 2.36  25 2.36  31 2.36  14 3.72   5 3.79   7 3.79   6 3.79
                             8 3.79
   3  0.249  0.751  0.852-  26 2.36  28 2.36  27 2.36  30 2.36  15 3.72   5 3.79   7 3.79   6 3.79
                             8 3.79
   4  0.751  0.751  0.852-  26 2.36  29 2.36  27 2.36  31 2.36  16 3.72   5 3.79   7 3.79   6 3.79
                             8 3.79
   5  0.000  0.000  0.649-  24 2.36  26 2.36  28 2.36  29 2.36   9 3.74   2 3.79   3 3.79   4 3.79
                             1 3.79
   6  0.500  0.000  0.650-  28 2.36  29 2.36  25 2.36  27 2.36  10 3.76   2 3.79   3 3.79   4 3.79
                             1 3.79
   7  0.000  0.500  0.650-  24 2.36  26 2.36  30 2.36  31 2.36  11 3.76   2 3.79   3 3.79   4 3.79
                             1 3.79
   8  0.500  0.500  0.651-  25 2.36  27 2.36  30 2.36  31 2.36  12 3.78   2 3.79   3 3.79   4 3.79
                             1 3.79
   9  0.000  0.000  0.351-  32 2.36  33 2.36  36 2.36  38 2.36   5 3.74  13 3.79  14 3.79  15 3.79
                            16 3.79
  10  0.500  0.000  0.350-  32 2.36  33 2.36  37 2.36  39 2.36   6 3.76  13 3.79  14 3.79  15 3.79
                            16 3.79
  11  0.000  0.500  0.350-  36 2.36  38 2.36  34 2.36  35 2.36   7 3.76  13 3.79  14 3.79  15 3.79
                            16 3.79
  12  0.500  0.500  0.349-  34 2.36  35 2.36  37 2.36  39 2.36   8 3.78  13 3.79  14 3.79  15 3.79
                            16 3.79
  13  0.249  0.249  0.148-  32 2.36  36 2.36  34 2.36  37 2.36   1 3.72   9 3.79  10 3.79  11 3.79
                            12 3.79
  14  0.751  0.249  0.148-  33 2.36  36 2.36  35 2.36  37 2.36   2 3.72   9 3.79  10 3.79  11 3.79
                            12 3.79
  15  0.249  0.751  0.148-  32 2.36  38 2.36  34 2.36  39 2.36   3 3.72   9 3.79  10 3.79  11 3.79
                            12 3.79
  16  0.751  0.751  0.148-  33 2.36  38 2.36  35 2.36  39 2.36   4 3.72   9 3.79  10 3.79  11 3.79
                            12 3.79
  17  0.500  0.000  0.000-
  18  0.000  0.500  0.000-
  19  0.500  0.500  0.000-
  20  0.250  0.250  0.500-
  21  0.750  0.250  0.500-
  22  0.250  0.750  0.500-
  23  0.750  0.750  0.500-
  24  0.000  0.250  0.751-   1 2.36   2 2.36   7 2.36   5 2.36
  25  0.500  0.250  0.751-   8 2.36   6 2.36   1 2.36   2 2.36
  26  0.000  0.750  0.751-   3 2.36   4 2.36   7 2.36   5 2.36
  27  0.500  0.750  0.751-   8 2.36   6 2.36   3 2.36   4 2.36
  28  0.250  0.000  0.751-   1 2.36   3 2.36   6 2.36   5 2.36
  29  0.750  0.000  0.751-   2 2.36   4 2.36   6 2.36   5 2.36
  30  0.250  0.500  0.751-   8 2.36   7 2.36   1 2.36   3 2.36
  31  0.750  0.500  0.751-   8 2.36   7 2.36   2 2.36   4 2.36
  32  0.250  0.000  0.249-  13 2.36  15 2.36  10 2.36   9 2.36
  33  0.750  0.000  0.249-  14 2.36  16 2.36  10 2.36   9 2.36
  34  0.250  0.500  0.249-  12 2.36  11 2.36  13 2.36  15 2.36
  35  0.750  0.500  0.249-  12 2.36  11 2.36  14 2.36  16 2.36
  36  0.000  0.250  0.249-  13 2.36  14 2.36  11 2.36   9 2.36
  37  0.500  0.250  0.249-  12 2.36  10 2.36  13 2.36  14 2.36
  38  0.000  0.750  0.249-  15 2.36  16 2.36  11 2.36   9 2.36
  39  0.500  0.750  0.249-  12 2.36  10 2.36  15 2.36  16 2.36
  40  0.000  0.000  0.000-

  LATTYP: Found a simple tetragonal cell.
 ALAT       =     7.9577614344
 C/A-ratio  =     1.5781187256

  Lattice vectors:

 A1 = (   7.9577614344,   0.0000000000,   0.0000000000)
 A2 = (   0.0000000000,   7.9577614344,   0.0000000000)
 A3 = (   0.0000000000,   0.0000000000,  12.5582923335)

Analysis of symmetry for initial positions (statically):
 Subroutine PRICEL returns:
 Original cell was already a primitive cell.

 Routine SETGRP: Setting up the symmetry group for a
 simple tetragonal supercell.

 Subroutine GETGRP returns: Found 16 space group operations
 (whereof 16 operations were pure point group operations)
 out of a pool of 16 trial point group operations.

The static configuration has the point symmetry D_4h.

Analysis of symmetry for dynamics (positions and initial velocities):
 Subroutine PRICEL returns:
 Original cell was already a primitive cell.

 Routine SETGRP: Setting up the symmetry group for a
 simple tetragonal supercell.

 Subroutine GETGRP returns: Found 16 space group operations
 (whereof 16 operations were pure point group operations)
 out of a pool of 16 trial point group operations.

The dynamic configuration has the point symmetry D_4h.

 Subroutine INISYM returns: Found 16 space group operations
 (whereof 16 operations are pure point group operations),
 and found     1 'primitive' translations

                                     Primitive cell

  volume of cell :     795.2660

  direct lattice vectors                    reciprocal lattice vectors
     7.957761434  0.000000000  0.000000000     0.125663481  0.000000000  0.000000000
     0.000000000  7.957761434  0.000000000     0.000000000  0.125663481  0.000000000
     0.000000000  0.000000000 12.558292333     0.000000000  0.000000000  0.079628661

  length of vectors
     7.957761434  7.957761434 12.558292333     0.125663481  0.125663481  0.079628661

  position of ions in fractional coordinates (direct lattice)
     0.248985352  0.248985352  0.852076114
     0.751014648  0.248985352  0.852076114
     0.248985352  0.751014648  0.852076114
     0.751014648  0.751014648  0.852076114
     0.000000000  0.000000000  0.648884559
     0.500000000  0.000000000  0.649722970
     0.000000000  0.500000000  0.649722970
     0.500000000  0.500000000  0.650674305
     0.000000000  0.000000000  0.351115441
     0.500000000  0.000000000  0.350277030
     0.000000000  0.500000000  0.350277030
     0.500000000  0.500000000  0.349325695
     0.248985352  0.248985352  0.147923886
     0.751014648  0.248985352  0.147923886
     0.248985352  0.751014648  0.147923886
     0.751014648  0.751014648  0.147923886
     0.500000000  0.000000000  0.000000000
     0.000000000  0.500000000  0.000000000
     0.500000000  0.500000000  0.000000000
     0.249790307  0.249790307  0.500000000
     0.750209693  0.249790307  0.500000000
     0.249790307  0.750209693  0.500000000
     0.750209693  0.750209693  0.500000000
     0.000000000  0.249643141  0.750585310
     0.500000000  0.249779914  0.751285536
     0.000000000  0.750356859  0.750585310
     0.500000000  0.750220086  0.751285536
     0.249643141  0.000000000  0.750585310
     0.750356859  0.000000000  0.750585310
     0.249779914  0.500000000  0.751285536
     0.750220086  0.500000000  0.751285536
     0.249643141  0.000000000  0.249414690
     0.750356859  0.000000000  0.249414690
     0.249779914  0.500000000  0.248714464
     0.750220086  0.500000000  0.248714464
     0.000000000  0.249643141  0.249414690
     0.500000000  0.249779914  0.248714464
     0.000000000  0.750356859  0.249414690
     0.500000000  0.750220086  0.248714464
     0.000000000  0.000000000  0.000000000

  ion indices of the primitive-cell ions
   primitive index   ion index
                 1           1
                 2           2
                 3           3
                 4           4
                 5           5
                 6           6
                 7           7
                 8           8
                 9           9
                10          10
                11          11
                12          12
                13          13
                14          14
                15          15
                16          16
                17          17
                18          18
                19          19
                20          20
                21          21
                22          22
                23          23
                24          24
                25          25
                26          26
                27          27
                28          28
                29          29
                30          30
                31          31
                32          32
                33          33
                34          34
                35          35
                36          36
                37          37
                38          38
                39          39
                40          40

 KPOINTS: K-Spacing Value to Generate K-Mesh: 0.03

Automatic generation of k-mesh.
 Grid dimensions read from file:
 generate k-points for:    4    4    3

 Generating k-lattice:

  Cartesian coordinates                     Fractional coordinates (reciprocal lattice)
     0.031415870  0.000000000  0.000000000     0.250000000  0.000000000  0.000000000
     0.000000000  0.031415870  0.000000000     0.000000000  0.250000000  0.000000000
     0.000000000  0.000000000  0.026542887     0.000000000  0.000000000  0.333333333

  Length of vectors
     0.031415870  0.031415870  0.026542887

  Shift w.r.t. Gamma in fractional coordinates (k-lattice)
     0.000000000  0.000000000  0.000000000

 Subroutine IBZKPT returns following result:

 Found     12 irreducible k-points:

 Following reciprocal coordinates:
            Coordinates               Weight
  0.000000  0.000000  0.000000      1.000000
  0.250000  0.000000  0.000000      4.000000
  0.500000  0.000000  0.000000      2.000000
  0.250000  0.250000  0.000000      4.000000
  0.500000  0.250000  0.000000      4.000000
  0.500000  0.500000  0.000000      1.000000
  0.000000  0.000000  0.333333      2.000000
  0.250000  0.000000  0.333333      8.000000
  0.500000  0.000000  0.333333      4.000000
[...]
 next E    =  -208.529799   (d E  =  -0.00000)

[...]

 d Force =-0.1247839E-10[-0.469E-10, 0.220E-10]  d Energy =-0.2646630E-09 0.252E-09
 d Force =-0.1162772E-03[-0.116E-03,-0.116E-03]  d Ewald  =-0.1162770E-03-0.200E-09

--------------------------------------- Ionic step        4  -------------------------------------------

[...]

 eigenvalue-minimisations  :  3176
 total energy-change (2. order) : 0.9704308E-09  (-0.4735280E-11)
 number of electron     384.0000000 magnetization
 augmentation part       95.0085303 magnetization

[...]

 Broyden mixing:
  rms(total) = 0.24457E-06    rms(broyden)= 0.24454E-06
  rms(prec ) = 0.28189E-06
  weight for this iteration     100.00

 eigenvalues of (default mixing * dielectric matrix)
  average eigenvalue GAMMA=   1.0642
  1.3827  1.3827  0.4271

[...]

--------------------------------------- Iteration      4(   5)  ---------------------------------------

 eigenvalue-minimisations  :  3128
 total energy-change (2. order) :-0.5456968E-10  (-0.1782214E-11)
 number of electron     384.0000000 magnetization
 augmentation part       95.0085304 magnetization

 Free energy of the ion-electron system (eV)
  alpha Z        PSCENC =      1270.21168223
  Ewald energy   TEWEN  =    -28802.92398008
  -Hartree energ DENC   =    -11954.57210824
  -exchange      EXHF   =         0.00000000
  -V(xc)+E(xc)   XCENC  =      1247.32607832
  PAW double counting   =     35928.29077037   -35321.07099758
  entropy T*S    EENTRO =        -0.00000748
  eigenvalues    EBANDS =     -2917.44308226
  atomic energy  EATOM  =     40341.65184589
  Solvation  Ediel_sol  =         0.00000000
  free energy    TOTEN  =      -208.52979884 eV

  energy without entropy =     -208.52979136  energy(sigma->0) =     -208.52979510

 average (electrostatic) potential at core
  the test charge radii are     1.0856  1.0808  0.7215  0.9698
  (the norm of the test charge is              1.0000)
       1-105.3272       2-105.3272       3-105.3272       4-105.3272       5-105.3170
       6-105.3232       7-105.3232       8-105.3168       9-105.3170      10-105.3232
      11-105.3232      12-105.3168      13-105.3272      14-105.3272      15-105.3272
      16-105.3272      17 -51.0611      18 -51.0611      19 -51.0268      20 -51.0407
      21 -51.0407      22 -51.0407      23 -51.0407      24 -69.3844      25 -69.3724
      26 -69.3844      27 -69.3724      28 -69.3844      29 -69.3844      30 -69.3724
      31 -69.3724      32 -69.3844      33 -69.3844      34 -69.3724      35 -69.3724
      36 -69.3844      37 -69.3724      38 -69.3844      39 -69.3724      40 -84.1468

 E-fermi :   6.0458     XC(G=0): -10.2711     alpha+bet :-11.5137

 val. band max:        5.9165121836   @ k =   0.0000   0.0000   0.3333
 cond. band min:       6.1589540201   @ k =   0.0000   0.0000   0.0000
 fundamental gap:      0.2424418365
 Fermi energy:         6.0458050303

[...]

 k-point    12 :       0.5000    0.5000    0.3333
  band No.  band energies     occupation
      1     -17.2895      2.00000
      2     -17.2877      2.00000
      3     -17.2877      2.00000
      4     -17.2867      2.00000
      5     -17.2863      2.00000
      6     -17.2849      2.00000
      7     -17.2849      2.00000
      8     -17.2835      2.00000
      9     -17.2125      2.00000
     10     -17.2095      2.00000
     11     -17.2088      2.00000
     12     -17.2088      2.00000
     13     -17.2074      2.00000
     14     -17.2044      2.00000
     15     -17.2035      2.00000
     16     -17.2035      2.00000
     17     -17.1644      2.00000
     18     -17.1642      2.00000
     19     -17.1642      2.00000
     20     -17.1632      2.00000
     21     -17.1550      2.00000
     22     -17.1550      2.00000
     23     -17.1527      2.00000
     24     -17.1504      2.00000
     25     -17.1366      2.00000
     26     -17.1366      2.00000
     27     -17.1364      2.00000
     28     -17.1364      2.00000
     29     -17.1361      2.00000
     30     -17.1351      2.00000
     31     -17.1351      2.00000
     32     -17.1338      2.00000
     33     -17.1336      2.00000
     34     -17.1334      2.00000
     35     -17.1334      2.00000
     36     -17.1333      2.00000
     37     -17.1327      2.00000
     38     -17.1321      2.00000
     39     -17.1321      2.00000
     40     -17.1308      2.00000
     41     -17.1205      2.00000
     42     -17.1205      2.00000
     43     -17.1201      2.00000
     44     -17.1196      2.00000
     45     -17.1173      2.00000
     46     -17.1173      2.00000
     47     -17.1157      2.00000
     48     -17.1157      2.00000
     49     -17.1150      2.00000
     50     -17.1150      2.00000
     51     -17.1138      2.00000
     52     -17.1137      2.00000
     53     -17.1137      2.00000
     54     -17.1124      2.00000
     55     -17.1121      2.00000
     56     -17.1112      2.00000
     57     -17.1111      2.00000
     58     -17.1111      2.00000
     59     -17.1090      2.00000
     60     -17.1088      2.00000
[...]
    218       9.8828      0.00000
    219       9.8934      0.00000
    220       9.9057      0.00000
    221       9.9711      0.00000
    222       9.9711      0.00000
    223       9.9745      0.00000
    224       9.9881      0.00000
    225      10.5662      0.00000
    226      10.5662      0.00000
    227      10.5786      0.00000
    228      10.6475      0.00000
    229      10.6491      0.00000
    230      10.6598      0.00000
    231      10.6647      0.00000
    232      10.6650      0.00000

 soft charge-density along one line, spin component           1
         0         1         2         3         4         5         6         7         8         9
 total charge-density along one line

------------------------ aborting loop because EDIFF is reached ----------------------------------------

  FORCE on cell =-STRESS in cart. coord.  units (eV):
  Direction    XX          YY          ZZ          XY          YZ          ZX
  Alpha Z  1270.21168  1270.21168  1270.21168
  Ewald   -7625.16106 -7625.16106-13552.71518     0.00000    -0.00000    -0.00000
  Hartree  5700.36535  5700.36535   553.84140    -0.00000    -0.00000    -0.00000
  E(xc)   -1822.15958 -1822.15958 -1824.13559     0.00000     0.00000     0.00000
  Local   -6213.36260 -6213.36260  4866.43875     0.00000     0.00000     0.00000
  n-local  1569.17556  1577.91889  1576.74845     0.37290    -0.05736     0.09900
  augment  2176.29727  2176.29727  2161.46021     0.00000     0.00000     0.00000
  Kinetic  4918.52051  4927.64971  4935.29599    -3.28180     0.44055    -0.48574
  Fock        0.00000     0.00000     0.00000     0.00000     0.00000     0.00000
  Total     -17.17660   -17.17660   -12.85428     0.00000     0.00000     0.00000
  in kB     -34.60473   -34.60473   -25.89678     0.00000     0.00000     0.00000

 VOLUME and BASIS-vectors are now :
  energy-cutoff  :      520.00
  volume of cell :      795.27
      direct lattice vectors                 reciprocal lattice vectors
     7.957761434  0.000000000  0.000000000     0.125663481  0.000000000  0.000000000
     0.000000000  7.957761434  0.000000000     0.000000000  0.125663481  0.000000000
     0.000000000  0.000000000 12.558292333     0.000000000  0.000000000  0.079628661

  length of vectors
     7.957761434  7.957761434 12.558292333     0.125663481  0.125663481  0.079628661

 FORCES acting on ions
    electron-ion (+dipol)            ewald-force                    non-local-force                 convergence-correction
   -.549E+01 -.549E+01 -.446E+03   0.541E+01 0.541E+01 0.456E+03   0.835E-01 0.835E-01 -.105E+02   -.783E-07 -.783E-07 0.882E-06
   0.549E+01 -.549E+01 -.446E+03   -.541E+01 0.541E+01 0.456E+03   -.835E-01 0.835E-01 -.105E+02   0.783E-07 -.783E-07 0.882E-06
   -.549E+01 0.549E+01 -.446E+03   0.541E+01 -.541E+01 0.456E+03   0.835E-01 -.835E-01 -.105E+02   -.783E-07 0.783E-07 0.882E-06
   0.549E+01 0.549E+01 -.446E+03   -.541E+01 -.541E+01 0.456E+03   -.835E-01 -.835E-01 -.105E+02   0.783E-07 0.783E-07 0.882E-06
   0.143E-11 -.106E-11 0.475E+03   0.000E+00 -.853E-13 -.485E+03   0.153E-17 0.734E-18 0.103E+02   -.318E-12 -.601E-13 0.153E-05
   0.773E-12 0.920E-12 0.475E+03   -.853E-13 0.462E-13 -.485E+03   0.982E-18 0.752E-18 0.104E+02   0.679E-13 -.548E-12 0.959E-06
   -.457E-13 0.264E-11 0.475E+03   -.284E-13 0.000E+00 -.485E+03   -.128E-17 0.225E-18 0.104E+02   0.199E-11 0.756E-13 0.959E-06
   0.783E-12 0.731E-11 0.476E+03   -.142E-12 -.231E-13 -.487E+03   -.118E-17 -.889E-18 0.105E+02   -.210E-11 0.188E-13 -.145E-06
   -.416E-13 0.945E-12 -.475E+03   -.114E-12 0.568E-13 0.485E+03   -.248E-17 -.172E-18 -.103E+02   -.473E-11 0.695E-12 -.153E-05
   0.765E-12 -.921E-12 -.475E+03   -.284E-13 -.213E-13 0.485E+03   -.632E-18 0.615E-18 -.104E+02   0.448E-11 0.212E-12 -.959E-06
   -.121E-13 -.137E-11 -.475E+03   0.284E-13 0.284E-13 0.485E+03   0.400E-18 0.729E-18 -.104E+02   -.618E-11 -.335E-12 -.959E-06
   0.739E-12 0.353E-13 -.476E+03   0.284E-13 -.711E-14 0.487E+03   0.608E-18 -.135E-17 -.105E+02   0.591E-11 0.387E-12 0.145E-06
   -.549E+01 -.549E+01 0.446E+03   0.541E+01 0.541E+01 -.456E+03   0.835E-01 0.835E-01 0.105E+02   -.783E-07 -.783E-07 -.882E-06
   0.549E+01 -.549E+01 0.446E+03   -.541E+01 0.541E+01 -.456E+03   -.835E-01 0.835E-01 0.105E+02   0.783E-07 -.783E-07 -.882E-06
   -.549E+01 0.549E+01 0.446E+03   0.541E+01 -.541E+01 -.456E+03   0.835E-01 -.835E-01 0.105E+02   -.783E-07 0.783E-07 -.882E-06
   0.549E+01 0.549E+01 0.446E+03   -.541E+01 -.541E+01 -.456E+03   -.835E-01 -.835E-01 0.105E+02   0.783E-07 0.783E-07 -.882E-06
   0.258E-13 0.202E-13 0.357E-12   -.568E-13 0.284E-13 -.604E-13   0.145E-25 -.210E-26 -.252E-27   -.189E-11 -.136E-12 0.628E-12
   0.463E-13 0.193E-11 0.626E-12   0.568E-13 0.142E-13 0.107E-13   0.229E-26 0.400E-25 -.170E-26   0.100E-11 -.130E-12 0.403E-11
   0.259E-13 -.599E-12 0.310E-12   0.568E-13 -.426E-13 -.355E-13   0.548E-26 0.840E-26 0.200E-27   -.101E-11 0.323E-12 0.375E-11
   -.245E+01 -.245E+01 0.572E-07   0.246E+01 0.246E+01 -.135E-13   -.121E-01 -.121E-01 0.152E-21   0.127E-06 0.127E-06 -.665E-12
   0.245E+01 -.245E+01 -.129E-10   -.246E+01 0.246E+01 -.170E-13   0.121E-01 -.121E-01 0.190E-20   -.127E-06 0.127E-06 -.224E-11
   -.245E+01 0.245E+01 0.117E-11   0.246E+01 -.246E+01 0.434E-14   -.121E-01 0.121E-01 0.351E-20   0.127E-06 -.127E-06 -.375E-12
   0.245E+01 0.245E+01 -.573E-07   -.246E+01 -.246E+01 0.794E-15   0.121E-01 0.121E-01 -.115E-19   -.127E-06 -.127E-06 -.141E-11
   -.175E-13 -.185E+01 0.811E+01   0.000E+00 0.182E+01 -.827E+01   0.602E-19 0.326E-01 0.160E+00   0.205E-11 -.432E-06 0.731E-06
   0.244E-12 -.123E+01 0.398E+01   0.284E-13 0.119E+01 -.382E+01   -.187E-18 0.476E-01 -.158E+00   -.214E-11 -.978E-06 0.145E-05
   -.193E-13 0.185E+01 0.811E+01   -.568E-13 -.182E+01 -.827E+01   -.120E-18 -.326E-01 0.160E+00   0.277E-11 0.432E-06 0.731E-06
   0.234E-12 0.123E+01 0.398E+01   0.426E-13 -.119E+01 -.382E+01   -.356E-18 -.476E-01 -.158E+00   -.285E-11 0.978E-06 0.145E-05
   -.185E+01 -.183E-11 0.811E+01   0.182E+01 0.320E-13 -.827E+01   0.326E-01 -.200E-18 0.160E+00   -.432E-06 0.115E-12 0.731E-06
   0.185E+01 -.130E-11 0.811E+01   -.182E+01 0.142E-13 -.827E+01   -.326E-01 0.513E-19 0.160E+00   0.432E-06 0.140E-11 0.731E-06
   -.123E+01 -.188E-11 0.398E+01   0.119E+01 0.711E-14 -.382E+01   0.476E-01 -.105E-18 -.158E+00   -.978E-06 -.154E-12 0.145E-05
   0.123E+01 0.490E-11 0.398E+01   -.119E+01 0.284E-13 -.382E+01   -.476E-01 -.170E-18 -.158E+00   0.978E-06 -.109E-11 0.145E-05
   -.185E+01 0.123E-11 -.811E+01   0.182E+01 0.000E+00 0.827E+01   0.326E-01 0.468E-18 -.160E+00   -.432E-06 0.608E-12 -.731E-06
   0.185E+01 0.173E-11 -.811E+01   -.182E+01 -.426E-13 0.827E+01   -.326E-01 0.229E-18 -.160E+00   0.432E-06 0.111E-11 -.731E-06
   -.123E+01 0.155E-11 -.398E+01   0.119E+01 -.213E-13 0.382E+01   0.476E-01 -.130E-18 0.158E+00   -.978E-06 -.676E-12 -.145E-05
   0.123E+01 0.387E-11 -.398E+01   -.119E+01 -.568E-13 0.382E+01   -.476E-01 -.283E-18 0.158E+00   0.978E-06 0.299E-12 -.145E-05
   0.215E-14 -.185E+01 -.811E+01   -.568E-13 0.182E+01 0.827E+01   -.162E-20 0.326E-01 -.160E+00   -.341E-11 -.432E-06 -.731E-06
   0.250E-12 -.123E+01 -.398E+01   0.142E-13 0.119E+01 0.382E+01   0.166E-18 0.476E-01 0.158E+00   0.333E-11 -.978E-06 -.145E-05
   0.226E-14 0.185E+01 -.811E+01   -.711E-13 -.182E+01 0.827E+01   0.161E-18 -.326E-01 -.160E+00   -.363E-11 0.432E-06 -.731E-06
   0.253E-12 0.123E+01 -.398E+01   0.284E-13 -.119E+01 0.382E+01   0.141E-18 -.476E-01 0.158E+00   0.353E-11 0.978E-06 -.145E-05
   -.941E-14 -.613E-14 0.414E-13   0.284E-13 0.284E-13 0.711E-14   0.695E-26 -.103E-25 0.607E-26   0.196E-11 -.239E-13 0.301E-11
   0.151E-10 -.255E-11 -.762E-10   -.426E-13 -.515E-13 -.234E-12   0.466E-18 -.208E-16 -.107E-13   -.944E-12 0.312E-11 -.118E-11

 POSITION                                       TOTAL-FORCE (eV/Angst)
      1.98137      1.98137     10.70062        -0.000002     -0.000002     -0.000005
      5.97640      1.98137     10.70062         0.000002     -0.000002     -0.000005
      1.98137      5.97640     10.70062        -0.000002      0.000002     -0.000005
      5.97640      5.97640     10.70062         0.000002      0.000002     -0.000005
      7.95776      0.00000      8.14888         0.000000      0.000000     -0.000001
      3.97888      0.00000      8.15941        -0.000000      0.000000     -0.000002
      0.00000      3.97888      8.15941         0.000000      0.000000     -0.000002
      3.97888      3.97888      8.17136        -0.000000      0.000000     -0.000008
      0.00000      0.00000      4.40941        -0.000000      0.000000      0.000001
      3.97888      0.00000      4.39888         0.000000      0.000000      0.000002
      0.00000      3.97888      4.39888        -0.000000      0.000000      0.000002
      3.97888      3.97888      4.38693        -0.000000      0.000000      0.000008
      1.98137      1.98137      1.85767        -0.000002     -0.000002      0.000005
      5.97640      1.98137      1.85767         0.000002     -0.000002      0.000005
      1.98137      5.97640      1.85767        -0.000002      0.000002      0.000005
      5.97640      5.97640      1.85767         0.000002      0.000002      0.000005
      3.97888      0.00000      0.00000        -0.000000      0.000000     -0.000000
      7.95776      3.97888      0.00000        -0.000000      0.000000     -0.000000
      3.97888      3.97888      0.00000         0.000000      0.000000     -0.000000
      1.98777      1.98777      6.27915        -0.000003     -0.000003     -0.000000
      5.96999      1.98777      6.27915         0.000003     -0.000003     -0.000000
      1.98777      5.96999      6.27915        -0.000003      0.000003     -0.000000
      5.96999      5.96999      6.27915         0.000003      0.000003     -0.000000
      0.00000      1.98660      9.42607         0.000000      0.000001      0.000004
      3.97888      1.98769      9.43486        -0.000000      0.000003      0.000001
      0.00000      5.97116      9.42607        -0.000000     -0.000001      0.000004
      3.97888      5.97007      9.43486         0.000000     -0.000003      0.000001
      1.98660      0.00000      9.42607         0.000001      0.000000      0.000004
      5.97116      0.00000      9.42607        -0.000001      0.000000      0.000004
      1.98769      3.97888      9.43486         0.000003      0.000000      0.000001
      5.97007      3.97888      9.43486        -0.000003      0.000000      0.000001
      1.98660      0.00000      3.13222         0.000001      0.000000     -0.000004
      5.97116      0.00000      3.13222        -0.000001      0.000000     -0.000004
      1.98769      3.97888      3.12343         0.000003      0.000000     -0.000001
      5.97007      3.97888      3.12343        -0.000003      0.000000     -0.000001
      0.00000      1.98660      3.13222         0.000000      0.000001     -0.000004
      3.97888      1.98769      3.12343        -0.000000      0.000003     -0.000001
      0.00000      5.97116      3.13222        -0.000000     -0.000001     -0.000004
      3.97888      5.97007      3.12343        -0.000000     -0.000003     -0.000001
      0.00000      0.00000      0.00000         0.000000      0.000000     -0.000000
    total drift:                                0.000000      0.000000     -0.000000

  FREE ENERGIE OF THE ION-ELECTRON SYSTEM (eV)
  free  energy   TOTEN  =      -208.52979884 eV

  energy  without entropy=     -208.52979136  energy(sigma->0) =     -208.52979510

 d Force = 0.1232359E-10[-0.732E-11, 0.320E-10]  d Energy =-0.1014996E-08 0.103E-08
 d Force = 0.7919726E-04[ 0.792E-04, 0.792E-04]  d Ewald  = 0.7919713E-04 0.138E-09

 reached required accuracy - stopping structural energy minimisation