 vasp.6.4.3 19Mar24 (build Apr 09 2025 20:43:19) complex

 executed on             LinuxIFC date 2025.04.13  04:16:14

 INCAR:
   PREC = Accurate
   IBRION = 2
   NSW = 100
   NELMIN = 5
   ISIF = 2
   ENCUT = 520
   EDIFF = 1.000000e-08
   EDIFFG = -1.000000e-5
   ISMEAR = 0
   SIGMA = 0.05
   IALGO = 38
   LREAL = .FALSE.
   ADDGRID = .TRUE.
   LWAVE = .FALSE.
   LCHARG = .FALSE.
   NCORE = 9

 POTCAR:    PAW_PBE Bi_d 06Sep2000
 POTCAR:    PAW_PBE Se 06Sep2000
 POTCAR:    PAW_PBE O 08Apr2002
 POTCAR:    PAW_PBE S 06Sep2000
 POTCAR:    PAW_PBE Bi_d 06Sep2000
   VRHFIN =Bi:

   TITEL  = PAW_PBE Bi_d 06Sep2000
   POMASS =  208.980; ZVAL   =   15.000    mass and valenz
   ENMAX  =  242.839; ENMIN  =  182.129 eV

   TITEL  = PAW_PBE Se 06Sep2000
   POMASS =   78.960; ZVAL   =    6.000    mass and valenz
   ENMAX  =  211.555; ENMIN  =  158.666 eV

   TITEL  = PAW_PBE O 08Apr2002
   POMASS =   16.000; ZVAL   =    6.000    mass and valenz
   ENMAX  =  400.000; ENMIN  =  300.000 eV

   TITEL  = PAW_PBE S 06Sep2000
   POMASS =   32.066; ZVAL   =    6.000    mass and valenz
   ENMAX  =  258.689; ENMIN  =  194.016 eV

  PAW_PBE Bi_d 06Sep2000                :
  PAW_PBE Se 06Sep2000                  :
  PAW_PBE O 08Apr2002                   :
  PAW_PBE S 06Sep2000                   :

 POSCAR: generated by phonopy
  positions in direct lattice
  velocities in cartesian coordinates

 exchange-correlation table for PE
   RHO(1)=    0.500       N(1)  =     2000
   RHO(2)=  100.500       N(2)  =     4000

 ion  position               nearest neighbor table
   1  0.249  0.249  0.854-  24 2.29  28 2.29  25 2.30  30 2.30  40 3.23  18 3.24  17 3.24  19 3.25
                            13 3.53   5 3.69   7 3.70   6 3.70   8 3.70   3 3.82   2 3.82   3 3.86
   2  0.751  0.249  0.854-  24 2.29  29 2.29  25 2.30  31 2.30  40 3.23  18 3.24  17 3.24  19 3.25
                            14 3.53   5 3.69   7 3.70   6 3.70   8 3.70   4 3.82   1 3.82   4 3.86
   3  0.249  0.751  0.854-  26 2.29  28 2.29  27 2.30  30 2.30  40 3.23  18 3.24  17 3.24  19 3.25
                            15 3.53   5 3.69   7 3.70   6 3.70   8 3.70   4 3.82   1 3.82   4 3.86
   4  0.751  0.751  0.854-  26 2.29  29 2.29  27 2.30  31 2.30  40 3.23  18 3.24  17 3.24  19 3.25
                            16 3.53   5 3.69   7 3.70   6 3.70   8 3.70   3 3.82   2 3.82   2 3.86
   5  0.000  0.000  0.647-  24 2.29  26 2.29  28 2.29  29 2.29  20 3.25  21 3.25  22 3.25  23 3.25
                             9 3.56   2 3.69   3 3.69   4 3.69   1 3.69   7 3.84   6 3.84   7 3.84
   6  0.500  0.000  0.648-  28 2.29  29 2.29  25 2.29  27 2.29  20 3.25  21 3.25  22 3.25  23 3.25
                            10 3.58   2 3.70   3 3.70   4 3.70   1 3.70   5 3.84   5 3.84   8 3.84
   7  0.000  0.500  0.648-  24 2.29  26 2.29  30 2.29  31 2.29  20 3.25  21 3.25  22 3.25  23 3.25
                            11 3.58   2 3.70   3 3.70   4 3.70   1 3.70   5 3.84   5 3.84   8 3.84
   8  0.500  0.500  0.648-  25 2.29  27 2.29  30 2.29  31 2.29  20 3.26  21 3.26  22 3.26  23 3.26
                            12 3.60   2 3.70   3 3.70   4 3.70   1 3.70   7 3.84   6 3.84   6 3.84
   9  0.000  0.000  0.353-  32 2.29  33 2.29  36 2.29  38 2.29  20 3.25  21 3.25  22 3.25  23 3.25
                             5 3.56  13 3.69  14 3.69  15 3.69  16 3.69  10 3.84  11 3.84  11 3.84
  10  0.500  0.000  0.352-  32 2.29  33 2.29  37 2.29  39 2.29  20 3.25  21 3.25  22 3.25  23 3.25
                             6 3.58  13 3.70  14 3.70  15 3.70  16 3.70   9 3.84   9 3.84  12 3.84
  11  0.000  0.500  0.352-  36 2.29  38 2.29  34 2.29  35 2.29  20 3.25  21 3.25  22 3.25  23 3.25
                             7 3.58  13 3.70  14 3.70  15 3.70  16 3.70   9 3.84   9 3.84  12 3.84
  12  0.500  0.500  0.352-  34 2.29  35 2.29  37 2.29  39 2.29  20 3.26  21 3.26  22 3.26  23 3.26
                             8 3.60  13 3.70  14 3.70  15 3.70  16 3.70  10 3.84  11 3.84  10 3.84
  13  0.249  0.249  0.146-  32 2.29  36 2.29  34 2.30  37 2.30  40 3.23  18 3.24  17 3.24  19 3.25
                             1 3.53   9 3.69  10 3.70  11 3.70  12 3.70  14 3.82  15 3.82  15 3.86
  14  0.751  0.249  0.146-  33 2.29  36 2.29  35 2.30  37 2.30  40 3.23  18 3.24  17 3.24  19 3.25
                             2 3.53   9 3.69  10 3.70  11 3.70  12 3.70  13 3.82  16 3.82  16 3.86
  15  0.249  0.751  0.146-  32 2.29  38 2.29  34 2.30  39 2.30  40 3.23  18 3.24  17 3.24  19 3.25
                             3 3.53   9 3.69  10 3.70  11 3.70  12 3.70  13 3.82  16 3.82  16 3.86
  16  0.751  0.751  0.146-  33 2.29  38 2.29  35 2.30  39 2.30  40 3.23  18 3.24  17 3.24  19 3.25
                             4 3.53   9 3.69  10 3.70  11 3.70  12 3.70  14 3.82  15 3.82  14 3.86
  17  0.500  0.000  0.000-   1 3.24   2 3.24   3 3.24   4 3.24  13 3.24  14 3.24  15 3.24  16 3.24

  18  0.000  0.500  0.000-   1 3.24   2 3.24   3 3.24   4 3.24  13 3.24  14 3.24  15 3.24  16 3.24

[...]

  24  0.000  0.250  0.750-   1 2.29   2 2.29   5 2.29   7 2.29
  25  0.500  0.250  0.751-   8 2.29   6 2.29   1 2.30   2 2.30
  26  0.000  0.750  0.750-   3 2.29   4 2.29   5 2.29   7 2.29
  27  0.500  0.750  0.751-   8 2.29   6 2.29   3 2.30   4 2.30
  28  0.250  0.000  0.750-   1 2.29   3 2.29   5 2.29   6 2.29
  29  0.750  0.000  0.750-   2 2.29   4 2.29   5 2.29   6 2.29
  30  0.250  0.500  0.751-   8 2.29   7 2.29   1 2.30   3 2.30
  31  0.750  0.500  0.751-   8 2.29   7 2.29   2 2.30   4 2.30
  32  0.250  0.000  0.250-  13 2.29  15 2.29   9 2.29  10 2.29
  33  0.750  0.000  0.250-  14 2.29  16 2.29   9 2.29  10 2.29
  34  0.250  0.500  0.249-  12 2.29  11 2.29  13 2.30  15 2.30
  35  0.750  0.500  0.249-  12 2.29  11 2.29  14 2.30  16 2.30
  36  0.000  0.250  0.250-  13 2.29  14 2.29   9 2.29  11 2.29
  37  0.500  0.250  0.249-  12 2.29  10 2.29  13 2.30  14 2.30
  38  0.000  0.750  0.250-  15 2.29  16 2.29   9 2.29  11 2.29
  39  0.500  0.750  0.249-  12 2.29  10 2.29  15 2.30  16 2.30
  40  0.000  0.000  0.000-   1 3.23   2 3.23   3 3.23   4 3.23  13 3.23  14 3.23  15 3.23  16 3.23

  LATTYP: Found a simple tetragonal cell.
 ALAT       =     7.6833558677
 C/A-ratio  =     1.5781187256

  Lattice vectors:

 A1 = (   7.6833558677,   0.0000000000,   0.0000000000)
 A2 = (   0.0000000000,   7.6833558677,   0.0000000000)
 A3 = (   0.0000000000,   0.0000000000,  12.1252477703)

Analysis of symmetry for initial positions (statically):
 Subroutine PRICEL returns:
 Original cell was already a primitive cell.

 Routine SETGRP: Setting up the symmetry group for a
 simple tetragonal supercell.

 Subroutine GETGRP returns: Found 16 space group operations
 (whereof 16 operations were pure point group operations)
 out of a pool of 16 trial point group operations.

The static configuration has the point symmetry D_4h.

Analysis of symmetry for dynamics (positions and initial velocities):
 Subroutine PRICEL returns:
 Original cell was already a primitive cell.

 Routine SETGRP: Setting up the symmetry group for a
 simple tetragonal supercell.

 Subroutine GETGRP returns: Found 16 space group operations
 (whereof 16 operations were pure point group operations)
 out of a pool of 16 trial point group operations.

The dynamic configuration has the point symmetry D_4h.

 Subroutine INISYM returns: Found 16 space group operations
 (whereof 16 operations are pure point group operations),
 and found     1 'primitive' translations

                                     Primitive cell

  volume of cell :     715.8014

  direct lattice vectors                    reciprocal lattice vectors
     7.683355868  0.000000000  0.000000000     0.130151462  0.000000000  0.000000000
     0.000000000  7.683355868  0.000000000     0.000000000  0.130151462  0.000000000
     0.000000000  0.000000000 12.125247770     0.000000000  0.000000000  0.082472542

  length of vectors
     7.683355868  7.683355868 12.125247770     0.130151462  0.130151462  0.082472542

  position of ions in fractional coordinates (direct lattice)
     0.248911080  0.248911080  0.854281863
     0.751088920  0.248911080  0.854281863
     0.248911080  0.751088920  0.854281863
     0.751088920  0.751088920  0.854281863
     0.000000000  0.000000000  0.646717637
     0.500000000  0.000000000  0.647515869
     0.000000000  0.500000000  0.647515869
     0.500000000  0.500000000  0.648417300
     0.000000000  0.000000000  0.353282363
     0.500000000  0.000000000  0.352484131
     0.000000000  0.500000000  0.352484131
     0.500000000  0.500000000  0.351582700
     0.248911080  0.248911080  0.145718137
     0.751088920  0.248911080  0.145718137
     0.248911080  0.751088920  0.145718137
     0.751088920  0.751088920  0.145718137
     0.500000000  0.000000000  0.000000000
     0.000000000  0.500000000  0.000000000
     0.500000000  0.500000000  0.000000000
     0.250137640  0.250137640  0.500000000
     0.749862360  0.250137640  0.500000000
     0.250137640  0.749862360  0.500000000
     0.749862360  0.749862360  0.500000000
     0.000000000  0.249535178  0.750473502
     0.500000000  0.249670185  0.751393777
     0.000000000  0.750464822  0.750473502
     0.500000000  0.750329815  0.751393777
     0.249535178  0.000000000  0.750473502
     0.750464822  0.000000000  0.750473502
     0.249670185  0.500000000  0.751393777
     0.750329815  0.500000000  0.751393777
     0.249535178  0.000000000  0.249526498
     0.750464822  0.000000000  0.249526498
     0.249670185  0.500000000  0.248606223
     0.750329815  0.500000000  0.248606223
     0.000000000  0.249535178  0.249526498
     0.500000000  0.249670185  0.248606223
     0.000000000  0.750464822  0.249526498
     0.500000000  0.750329815  0.248606223
     0.000000000  0.000000000  0.000000000

  ion indices of the primitive-cell ions
   primitive index   ion index
                 1           1
                 2           2
                 3           3
                 4           4
                 5           5
                 6           6
                 7           7
                 8           8
                 9           9
                10          10
                11          11
                12          12
                13          13
                14          14
                15          15
                16          16
                17          17
                18          18
                19          19
                20          20
                21          21
                22          22
                23          23
                24          24
                25          25
                26          26
                27          27
                28          28
                29          29
                30          30
                31          31
                32          32
                33          33
                34          34
                35          35
                36          36
                37          37
                38          38
                39          39
                40          40

 KPOINTS: K-Spacing Value to Generate K-Mesh: 0.03

Automatic generation of k-mesh.
 Grid dimensions read from file:
 generate k-points for:    4    4    3

 Generating k-lattice:

[...]
 next E    =  -208.092743   (d E  =  -0.00000)

[...]

 d Force =-0.4697913E-10[-0.365E-09, 0.271E-09]  d Energy =-0.7185008E-09 0.672E-09
 d Force =-0.6317179E-03[-0.632E-03,-0.632E-03]  d Ewald  =-0.6317181E-03 0.149E-09

--------------------------------------- Ionic step       33  -------------------------------------------

[...]

 eigenvalue-minimisations  :  2880
 total energy-change (2. order) : 0.9467840E-09  (-0.2312360E-10)
 number of electron     384.0000003 magnetization
 augmentation part       95.0366219 magnetization

[...]

 Broyden mixing:
  rms(total) = 0.74309E-06    rms(broyden)= 0.74300E-06
  rms(prec ) = 0.85602E-06
  weight for this iteration     100.00

 eigenvalues of (default mixing * dielectric matrix)
  average eigenvalue GAMMA=   1.0612
  1.3313  1.3313  0.5210

[...]

--------------------------------------- Iteration     33(   5)  ---------------------------------------

 eigenvalue-minimisations  :  2880
 total energy-change (2. order) :-0.4738467E-09  (-0.3412368E-11)
 number of electron     384.0000003 magnetization
 augmentation part       95.0366219 magnetization

 Free energy of the ion-electron system (eV)
  alpha Z        PSCENC =      1411.22415806
  Ewald energy   TEWEN  =    -30298.56141373
  -Hartree energ DENC   =    -11047.94308358
  -exchange      EXHF   =         0.00000000
  -V(xc)+E(xc)   XCENC  =      1257.53562311
  PAW double counting   =     36740.19400137   -36141.39372221
  entropy T*S    EENTRO =        -0.00000000
  eigenvalues    EBANDS =     -2470.80015176
  atomic energy  EATOM  =     40341.65184589
  Solvation  Ediel_sol  =         0.00000000
  free energy    TOTEN  =      -208.09274285 eV

  energy without entropy =     -208.09274285  energy(sigma->0) =     -208.09274285

 average (electrostatic) potential at core
  the test charge radii are     1.0856  1.0808  0.7215  0.9698
  (the norm of the test charge is              1.0000)
       1-103.9317       2-103.9317       3-103.9317       4-103.9317       5-103.9258
       6-103.9286       7-103.9286       8-103.9195       9-103.9258      10-103.9286
      11-103.9286      12-103.9195      13-103.9317      14-103.9317      15-103.9317
      16-103.9317      17 -49.9808      18 -49.9808      19 -49.9438      20 -49.9676
      21 -49.9676      22 -49.9676      23 -49.9676      24 -68.1885      25 -68.1695
      26 -68.1885      27 -68.1695      28 -68.1885      29 -68.1885      30 -68.1695
      31 -68.1695      32 -68.1885      33 -68.1885      34 -68.1695      35 -68.1695
      36 -68.1885      37 -68.1695      38 -68.1885      39 -68.1695      40 -83.1016

 E-fermi :   7.2014     XC(G=0): -10.8098     alpha+bet :-12.7919

 val. band max:        6.9191583808   @ k =   0.0000   0.0000   0.3333
 cond. band min:       7.5612661242   @ k =   0.0000   0.0000   0.0000
 fundamental gap:      0.6421077435
 Fermi energy:         7.2014042227

[...]

 k-point    12 :       0.5000    0.5000    0.3333
  band No.  band energies     occupation
      1     -15.9997      2.00000
      2     -15.9956      2.00000
      3     -15.9956      2.00000
      4     -15.9938      2.00000
      5     -15.9916      2.00000
      6     -15.9897      2.00000
      7     -15.9897      2.00000
      8     -15.9856      2.00000
      9     -15.8984      2.00000
     10     -15.8942      2.00000
     11     -15.8942      2.00000
     12     -15.8939      2.00000
     13     -15.8875      2.00000
     14     -15.8829      2.00000
     15     -15.8829      2.00000
     16     -15.8829      2.00000
     17     -15.8245      2.00000
     18     -15.8237      2.00000
     19     -15.8237      2.00000
     20     -15.8221      2.00000
     21     -15.8121      2.00000
     22     -15.8111      2.00000
     23     -15.8111      2.00000
     24     -15.8025      2.00000
     25     -15.7890      2.00000
     26     -15.7870      2.00000
     27     -15.7870      2.00000
     28     -15.7847      2.00000
     29     -15.7828      2.00000
     30     -15.7825      2.00000
     31     -15.7813      2.00000
     32     -15.7813      2.00000
     33     -15.7808      2.00000
     34     -15.7805      2.00000
     35     -15.7805      2.00000
     36     -15.7795      2.00000
     37     -15.7785      2.00000
     38     -15.7782      2.00000
     39     -15.7782      2.00000
     40     -15.7773      2.00000
     41     -15.7684      2.00000
     42     -15.7677      2.00000
     43     -15.7677      2.00000
     44     -15.7669      2.00000
     45     -15.7666      2.00000
     46     -15.7666      2.00000
     47     -15.7616      2.00000
     48     -15.7600      2.00000
     49     -15.7566      2.00000
     50     -15.7566      2.00000
     51     -15.7555      2.00000
     52     -15.7555      2.00000
     53     -15.7549      2.00000
     54     -15.7542      2.00000
     55     -15.7534      2.00000
     56     -15.7524      2.00000
     57     -15.7398      2.00000
     58     -15.7389      2.00000
     59     -15.7371      2.00000
     60     -15.7371      2.00000
[...]
    218      11.7085      0.00000
    219      11.7326      0.00000
    220      11.7351      0.00000
    221      11.8387      0.00000
    222      11.8387      0.00000
    223      11.8399      0.00000
    224      11.8567      0.00000
    225      12.3445      0.00000
    226      12.3836      0.00000
    227      12.3836      0.00000
    228      12.4096      0.00000
    229      12.4370      0.00000
    230      12.4370      0.00000
    231      12.5077      0.00000
    232      12.5118      0.00000

 soft charge-density along one line, spin component           1
         0         1         2         3         4         5         6         7         8         9
 total charge-density along one line

------------------------ aborting loop because EDIFF is reached ----------------------------------------

  FORCE on cell =-STRESS in cart. coord.  units (eV):
  Direction    XX          YY          ZZ          XY          YZ          ZX
  Alpha Z  1411.22416  1411.22416  1411.22416
  Ewald   -8641.98425 -8641.98425-13014.70587     0.00000    -0.00000    -0.00000
  Hartree  5000.19827  5000.19827  1047.54655    -0.00000    -0.00000    -0.00000
  E(xc)   -1831.09461 -1831.09461 -1832.35371     0.00000    -0.00000     0.00000
  Local   -4652.17604 -4652.17604  3686.62709     0.00000    -0.00000    -0.00000
  n-local  1588.76468  1594.93187  1602.04685     0.65331    -0.05772     0.13427
  augment  2176.53052  2176.53052  2160.53717    -0.00000     0.00000     0.00000
  Kinetic  4968.10144  4976.25685  4959.65214    -3.94014     0.46669    -0.60597
  Fock        0.00000     0.00000     0.00000     0.00000     0.00000     0.00000
  Total      26.72548    26.72548    20.57437     0.00000     0.00000     0.00000
  in kB      59.81961    59.81961    46.05159     0.00000     0.00000     0.00000

 VOLUME and BASIS-vectors are now :
  energy-cutoff  :      520.00
  volume of cell :      715.80
      direct lattice vectors                 reciprocal lattice vectors
     7.683355868  0.000000000  0.000000000     0.130151462  0.000000000  0.000000000
     0.000000000  7.683355868  0.000000000     0.000000000  0.130151462  0.000000000
     0.000000000  0.000000000 12.125247770     0.000000000  0.000000000  0.082472542

  length of vectors
     7.683355868  7.683355868 12.125247770     0.130151462  0.130151462  0.082472542

 FORCES acting on ions
    electron-ion (+dipol)            ewald-force                    non-local-force                 convergence-correction
   -.696E+01 -.696E+01 -.426E+03   0.683E+01 0.683E+01 0.437E+03   0.130E+00 0.130E+00 -.113E+02   0.173E-06 0.173E-06 0.915E-07
   0.696E+01 -.696E+01 -.426E+03   -.683E+01 0.683E+01 0.437E+03   -.130E+00 0.130E+00 -.113E+02   -.173E-06 0.173E-06 0.915E-07
   -.696E+01 0.696E+01 -.426E+03   0.683E+01 -.683E+01 0.437E+03   0.130E+00 -.130E+00 -.113E+02   0.173E-06 -.173E-06 0.915E-07
   0.696E+01 0.696E+01 -.426E+03   -.683E+01 -.683E+01 0.437E+03   -.130E+00 -.130E+00 -.113E+02   -.173E-06 -.173E-06 0.915E-07
   0.130E-11 -.194E-11 0.458E+03   0.000E+00 -.568E-13 -.469E+03   -.216E-17 -.804E-19 0.112E+02   -.360E-11 -.830E-12 -.884E-07
   0.727E-12 0.124E-12 0.456E+03   0.114E-12 0.435E-13 -.467E+03   0.117E-17 -.973E-18 0.112E+02   0.309E-11 0.256E-11 0.282E-06
   0.138E-11 0.694E-12 0.456E+03   0.114E-12 -.284E-13 -.467E+03   -.964E-18 0.421E-18 0.112E+02   -.221E-11 -.857E-12 0.282E-06
   0.761E-12 -.237E-11 0.456E+03   0.568E-13 -.415E-13 -.467E+03   -.671E-18 0.124E-18 0.112E+02   0.171E-11 -.160E-11 0.411E-06
   0.137E-11 0.200E-11 -.458E+03   0.000E+00 -.114E-12 0.469E+03   0.350E-18 -.937E-19 -.112E+02   -.292E-11 0.176E-13 0.884E-07
   0.716E-12 -.583E-13 -.456E+03   0.142E-12 0.497E-13 0.467E+03   -.149E-17 -.521E-18 -.112E+02   0.260E-11 -.269E-11 -.282E-06
   0.133E-11 -.194E-11 -.456E+03   0.000E+00 0.284E-13 0.467E+03   0.666E-18 0.342E-18 -.112E+02   0.117E-12 -.247E-11 -.282E-06
   0.716E-12 -.542E-11 -.456E+03   0.000E+00 -.568E-13 0.467E+03   0.106E-17 -.120E-18 -.112E+02   -.406E-12 0.136E-11 -.411E-06
   -.696E+01 -.696E+01 0.426E+03   0.683E+01 0.683E+01 -.437E+03   0.130E+00 0.130E+00 0.113E+02   0.173E-06 0.173E-06 -.915E-07
   0.696E+01 -.696E+01 0.426E+03   -.683E+01 0.683E+01 -.437E+03   -.130E+00 0.130E+00 0.113E+02   -.173E-06 0.173E-06 -.915E-07
   -.696E+01 0.696E+01 0.426E+03   0.683E+01 -.683E+01 -.437E+03   0.130E+00 -.130E+00 0.113E+02   0.173E-06 -.173E-06 -.915E-07
   0.696E+01 0.696E+01 0.426E+03   -.683E+01 -.683E+01 -.437E+03   -.130E+00 -.130E+00 0.113E+02   -.173E-06 -.173E-06 -.915E-07
   0.159E-13 0.226E-13 0.548E-12   0.853E-13 0.711E-13 -.110E-12   0.433E-27 -.475E-27 0.250E-27   -.128E-11 0.128E-11 -.455E-11
   0.780E-13 0.167E-11 0.812E-12   0.114E-12 0.426E-13 -.135E-12   0.822E-27 0.188E-27 -.194E-27   0.859E-12 -.253E-11 -.475E-11
   0.144E-13 -.482E-12 0.410E-12   0.568E-13 0.142E-13 -.178E-12   0.129E-27 -.344E-27 0.533E-27   -.855E-12 -.133E-11 -.458E-11
   -.208E+01 -.208E+01 -.881E-07   0.209E+01 0.209E+01 -.419E-13   -.101E-01 -.101E-01 0.435E-20   -.140E-05 -.140E-05 0.246E-11
   0.208E+01 -.208E+01 0.140E-12   -.209E+01 0.209E+01 -.206E-13   0.101E-01 -.101E-01 -.260E-20   0.140E-05 -.140E-05 0.373E-11
   -.208E+01 0.208E+01 -.937E-12   0.209E+01 -.209E+01 -.170E-13   -.101E-01 0.101E-01 -.166E-19   -.140E-05 0.140E-05 0.246E-11
   0.208E+01 0.208E+01 0.881E-07   -.209E+01 -.209E+01 -.284E-14   0.101E-01 0.101E-01 0.309E-20   0.140E-05 0.140E-05 0.244E-11
   0.510E-12 -.270E+01 0.904E+01   -.284E-13 0.272E+01 -.919E+01   -.152E-18 -.137E-01 0.147E+00   -.192E-11 0.363E-05 -.221E-06
   0.207E-12 -.211E+01 0.367E+01   0.000E+00 0.211E+01 -.353E+01   -.203E-18 -.266E-02 -.140E+00   0.179E-11 0.259E-05 -.222E-06
   0.532E-12 0.270E+01 0.904E+01   -.426E-13 -.272E+01 -.919E+01   0.136E-18 0.137E-01 0.147E+00   -.130E-13 -.363E-05 -.221E-06
   0.177E-12 0.211E+01 0.367E+01   0.284E-13 -.211E+01 -.353E+01   -.444E-18 0.266E-02 -.140E+00   -.103E-12 -.259E-05 -.222E-06
   -.270E+01 0.614E-12 0.904E+01   0.272E+01 -.178E-13 -.919E+01   -.137E-01 0.381E-19 0.147E+00   0.363E-05 0.225E-12 -.221E-06
   0.270E+01 0.159E-11 0.904E+01   -.272E+01 0.142E-13 -.919E+01   0.137E-01 -.804E-19 0.147E+00   -.363E-05 0.162E-11 -.221E-06
   -.211E+01 -.402E-11 0.367E+01   0.211E+01 -.107E-13 -.353E+01   -.266E-02 0.159E-19 -.140E+00   0.259E-05 0.307E-12 -.222E-06
   0.211E+01 0.581E-12 0.367E+01   -.211E+01 -.142E-13 -.353E+01   0.266E-02 0.305E-18 -.140E+00   -.259E-05 -.246E-11 -.222E-06
   -.270E+01 -.157E-11 -.904E+01   0.272E+01 -.497E-13 0.919E+01   -.137E-01 -.644E-20 -.147E+00   0.363E-05 0.756E-12 0.221E-06
   0.270E+01 -.673E-12 -.904E+01   -.272E+01 -.711E-13 0.919E+01   0.137E-01 0.687E-20 -.147E+00   -.363E-05 -.761E-12 0.221E-06
   -.211E+01 -.145E-11 -.367E+01   0.211E+01 0.462E-13 0.353E+01   -.266E-02 -.208E-18 0.140E+00   0.259E-05 -.548E-12 0.222E-06
   0.211E+01 0.731E-11 -.367E+01   -.211E+01 0.284E-13 0.353E+01   0.266E-02 0.233E-18 0.140E+00   -.259E-05 -.103E-11 0.222E-06
   0.495E-12 -.270E+01 -.904E+01   0.142E-13 0.272E+01 0.919E+01   0.383E-18 -.137E-01 -.147E+00   0.654E-12 0.363E-05 0.221E-06
   0.268E-12 -.211E+01 -.367E+01   0.000E+00 0.211E+01 0.353E+01   0.895E-20 -.266E-02 0.140E+00   -.798E-12 0.259E-05 0.222E-06
   0.501E-12 0.270E+01 -.904E+01   0.142E-13 -.272E+01 0.919E+01   0.117E-18 0.137E-01 -.147E+00   0.194E-12 -.363E-05 0.221E-06
   0.261E-12 0.211E+01 -.367E+01   0.426E-13 -.211E+01 0.353E+01   0.640E-18 0.266E-02 0.140E+00   -.352E-12 -.259E-05 0.222E-06
   0.697E-13 -.626E-14 0.689E-12   0.853E-13 -.284E-13 -.156E-12   0.544E-27 0.208E-27 -.147E-26   0.134E-11 0.186E-11 -.276E-11
   0.253E-10 0.122E-10 -.966E-10   0.568E-13 -.105E-12 0.533E-12   0.263E-16 -.239E-16 -.147E-26   -.184E-11 -.867E-12 0.136E-10

 POSITION                                       TOTAL-FORCE (eV/Angst)
      1.91136      1.91136     10.39229        -0.000002     -0.000002     -0.000003
      5.77199      1.91136     10.39229         0.000002     -0.000002     -0.000003
      1.91136      5.77199     10.39229        -0.000002      0.000002     -0.000003
      5.77199      5.77199     10.39229         0.000002      0.000002     -0.000003
      7.68336      0.00000      7.80649        -0.000000      0.000000     -0.000004
      3.84168      0.00000      7.81700        -0.000000      0.000000     -0.000001
      7.68336      3.84168      7.81700        -0.000000     -0.000000     -0.000001
      3.84168      3.84168      7.82854        -0.000000     -0.000000     -0.000006
      7.68336      0.00000      4.31876        -0.000000     -0.000000      0.000004
      3.84168      0.00000      4.30825        -0.000000     -0.000000      0.000001
      7.68336      3.84168      4.30825        -0.000000     -0.000000      0.000001
      3.84168      3.84168      4.29670        -0.000000     -0.000000      0.000006
      1.91136      1.91136      1.73296        -0.000002     -0.000002      0.000003
      5.77199      1.91136      1.73296         0.000002     -0.000002      0.000003
      1.91136      5.77199      1.73296        -0.000002      0.000002      0.000003
      5.77199      5.77199      1.73296         0.000002      0.000002      0.000003
      3.84168      0.00000      0.00000        -0.000000     -0.000000     -0.000000
      7.68336      3.84168      0.00000        -0.000000     -0.000000     -0.000000
      3.84168      3.84168      0.00000        -0.000000      0.000000     -0.000000
      1.92382      1.92382      6.06262        -0.000003     -0.000003     -0.000000
      5.75953      1.92382      6.06262         0.000003     -0.000003     -0.000000
      1.92382      5.75953      6.06262        -0.000003      0.000003     -0.000000
      5.75953      5.75953      6.06262         0.000003      0.000003     -0.000000
      7.68336      1.91648      9.09777        -0.000000      0.000001      0.000003
      3.84168      1.91750      9.11235        -0.000000     -0.000001      0.000010
      7.68336      5.76688      9.09777        -0.000000     -0.000001      0.000003
      3.84168      5.76585      9.11235        -0.000000      0.000001      0.000010
      1.91648      0.00000      9.09777         0.000001     -0.000000      0.000003
      5.76688      0.00000      9.09777        -0.000001     -0.000000      0.000003
      1.91750      3.84168      9.11235        -0.000001     -0.000000      0.000010
      5.76585      3.84168      9.11235         0.000001     -0.000000      0.000010
      1.91648      0.00000      3.02748         0.000001      0.000000     -0.000003
      5.76688      0.00000      3.02748        -0.000001      0.000000     -0.000003
      1.91750      3.84168      3.01289        -0.000001     -0.000000     -0.000010
      5.76585      3.84168      3.01289         0.000001     -0.000000     -0.000010
      7.68336      1.91648      3.02748        -0.000000      0.000001     -0.000003
      3.84168      1.91750      3.01289        -0.000000     -0.000001     -0.000010
      7.68336      5.76688      3.02748        -0.000000     -0.000001     -0.000003
      3.84168      5.76585      3.01289        -0.000000      0.000001     -0.000010
      7.68336      0.00000      0.00000        -0.000000      0.000000     -0.000000
    total drift:                                0.000000      0.000000     -0.000000

  FREE ENERGIE OF THE ION-ELECTRON SYSTEM (eV)
  free  energy   TOTEN  =      -208.09274285 eV

  energy  without entropy=     -208.09274285  energy(sigma->0) =     -208.09274285

 d Force = 0.1019132E-09[-0.539E-11, 0.209E-09]  d Energy = 0.6220944E-09-0.520E-09
 d Force = 0.3625921E-03[ 0.363E-03, 0.363E-03]  d Ewald  = 0.3625920E-03 0.149E-09

 reached required accuracy - stopping structural energy minimisation