 vasp.6.4.3 19Mar24 (build Apr 09 2025 20:43:19) complex

 executed on             LinuxIFC date 2025.04.12  17:26:22

 INCAR:
   PREC = Accurate
   IBRION = 2
   NSW = 100
   NELMIN = 5
   ISIF = 2
   ENCUT = 520
   EDIFF = 1.000000e-08
   EDIFFG = -1.000000e-5
   ISMEAR = 0
   SIGMA = 0.05
   IALGO = 38
   LREAL = .FALSE.
   ADDGRID = .TRUE.
   LWAVE = .FALSE.
   LCHARG = .FALSE.
   NCORE = 9

 POTCAR:    PAW_PBE Bi_d 06Sep2000
 POTCAR:    PAW_PBE Se 06Sep2000
 POTCAR:    PAW_PBE O 08Apr2002
 POTCAR:    PAW_PBE S 06Sep2000
 POTCAR:    PAW_PBE Bi_d 06Sep2000
   VRHFIN =Bi:

   TITEL  = PAW_PBE Bi_d 06Sep2000
   POMASS =  208.980; ZVAL   =   15.000    mass and valenz
   ENMAX  =  242.839; ENMIN  =  182.129 eV

   TITEL  = PAW_PBE Se 06Sep2000
   POMASS =   78.960; ZVAL   =    6.000    mass and valenz
   ENMAX  =  211.555; ENMIN  =  158.666 eV

   TITEL  = PAW_PBE O 08Apr2002
   POMASS =   16.000; ZVAL   =    6.000    mass and valenz
   ENMAX  =  400.000; ENMIN  =  300.000 eV

   TITEL  = PAW_PBE S 06Sep2000
   POMASS =   32.066; ZVAL   =    6.000    mass and valenz
   ENMAX  =  258.689; ENMIN  =  194.016 eV

  PAW_PBE Bi_d 06Sep2000                :
  PAW_PBE Se 06Sep2000                  :
  PAW_PBE O 08Apr2002                   :
  PAW_PBE S 06Sep2000                   :

 POSCAR: generated by phonopy
  positions in direct lattice
  velocities in cartesian coordinates

 exchange-correlation table for PE
   RHO(1)=    0.500       N(1)  =     2000
   RHO(2)=  100.500       N(2)  =     4000

 ion  position               nearest neighbor table
   1  0.249  0.249  0.860-  24 2.28  28 2.28  25 2.29  30 2.29  40 3.13  18 3.14  17 3.14  19 3.15
                            13 3.33   5 3.71   7 3.71   6 3.71   8 3.71   3 3.74   2 3.74   3 3.78
   2  0.751  0.249  0.860-  24 2.28  29 2.28  25 2.29  31 2.29  40 3.13  18 3.14  17 3.14  19 3.15
                            14 3.33   5 3.71   7 3.71   6 3.71   8 3.71   4 3.74   1 3.74   4 3.78
   3  0.249  0.751  0.860-  26 2.28  28 2.28  27 2.29  30 2.29  40 3.13  18 3.14  17 3.14  19 3.15
                            15 3.33   5 3.71   7 3.71   6 3.71   8 3.71   4 3.74   1 3.74   4 3.78
   4  0.751  0.751  0.860-  26 2.28  29 2.28  27 2.29  31 2.29  40 3.13  18 3.14  17 3.14  19 3.15
                            16 3.33   5 3.71   7 3.71   6 3.71   8 3.71   3 3.74   2 3.74   2 3.78
   5  0.000  0.000  0.641-  24 2.28  26 2.28  28 2.28  29 2.28  20 3.15  21 3.15  22 3.15  23 3.15
                             9 3.35   2 3.71   3 3.71   4 3.71   1 3.71   7 3.76   6 3.76   7 3.76
   6  0.500  0.000  0.642-  28 2.28  29 2.28  25 2.28  27 2.28  20 3.15  21 3.15  22 3.15  23 3.15
                            10 3.37   2 3.71   3 3.71   4 3.71   1 3.71   5 3.76   5 3.76   8 3.76
   7  0.000  0.500  0.642-  24 2.28  26 2.28  30 2.28  31 2.28  20 3.15  21 3.15  22 3.15  23 3.15
                            11 3.37   2 3.71   3 3.71   4 3.71   1 3.71   5 3.76   5 3.76   8 3.76
   8  0.500  0.500  0.643-  25 2.28  27 2.28  30 2.28  31 2.28  20 3.15  21 3.15  22 3.15  23 3.15
                            12 3.40   2 3.71   3 3.71   4 3.71   1 3.71   7 3.76   6 3.76   6 3.76
   9  0.000  0.000  0.359-  32 2.28  33 2.28  36 2.28  38 2.28  20 3.15  21 3.15  22 3.15  23 3.15
                             5 3.35  13 3.71  14 3.71  15 3.71  16 3.71  10 3.76  11 3.76  11 3.76
  10  0.500  0.000  0.358-  32 2.28  33 2.28  37 2.28  39 2.28  20 3.15  21 3.15  22 3.15  23 3.15
                             6 3.37  13 3.71  14 3.71  15 3.71  16 3.71   9 3.76   9 3.76  12 3.76
  11  0.000  0.500  0.358-  36 2.28  38 2.28  34 2.28  35 2.28  20 3.15  21 3.15  22 3.15  23 3.15
                             7 3.37  13 3.71  14 3.71  15 3.71  16 3.71   9 3.76   9 3.76  12 3.76
  12  0.500  0.500  0.357-  34 2.28  35 2.28  37 2.28  39 2.28  20 3.15  21 3.15  22 3.15  23 3.15
                             8 3.40  13 3.71  14 3.71  15 3.71  16 3.71  10 3.76  11 3.76  10 3.76
  13  0.249  0.249  0.140-  32 2.28  36 2.28  34 2.29  37 2.29  40 3.13  18 3.14  17 3.14  19 3.15
                             1 3.33   9 3.71  10 3.71  11 3.71  12 3.71  14 3.74  15 3.74  15 3.78
  14  0.751  0.249  0.140-  33 2.28  36 2.28  35 2.29  37 2.29  40 3.13  18 3.14  17 3.14  19 3.15
                             2 3.33   9 3.71  10 3.71  11 3.71  12 3.71  13 3.74  16 3.74  16 3.78
  15  0.249  0.751  0.140-  32 2.28  38 2.28  34 2.29  39 2.29  40 3.13  18 3.14  17 3.14  19 3.15
                             3 3.33   9 3.71  10 3.71  11 3.71  12 3.71  13 3.74  16 3.74  16 3.78
  16  0.751  0.751  0.140-  33 2.28  38 2.28  35 2.29  39 2.29  40 3.13  18 3.14  17 3.14  19 3.15
                             4 3.33   9 3.71  10 3.71  11 3.71  12 3.71  14 3.74  15 3.74  14 3.78
  17  0.500  0.000  0.000-   1 3.14   2 3.14   3 3.14   4 3.14  13 3.14  14 3.14  15 3.14  16 3.14

  18  0.000  0.500  0.000-   1 3.14   2 3.14   3 3.14   4 3.14  13 3.14  14 3.14  15 3.14  16 3.14

[...]

  24  0.000  0.249  0.750-   1 2.28   2 2.28   5 2.28   7 2.28
  25  0.500  0.249  0.752-   8 2.28   6 2.28   1 2.29   2 2.29
  26  0.000  0.751  0.750-   3 2.28   4 2.28   5 2.28   7 2.28
  27  0.500  0.751  0.752-   8 2.28   6 2.28   3 2.29   4 2.29
  28  0.249  0.000  0.750-   1 2.28   3 2.28   5 2.28   6 2.28
  29  0.751  0.000  0.750-   2 2.28   4 2.28   5 2.28   6 2.28
  30  0.249  0.500  0.752-   8 2.28   7 2.28   1 2.29   3 2.29
  31  0.751  0.500  0.752-   8 2.28   7 2.28   2 2.29   4 2.29
  32  0.249  0.000  0.250-  13 2.28  15 2.28   9 2.28  10 2.28
  33  0.751  0.000  0.250-  14 2.28  16 2.28   9 2.28  10 2.28
  34  0.249  0.500  0.248-  12 2.28  11 2.28  13 2.29  15 2.29
  35  0.751  0.500  0.248-  12 2.28  11 2.28  14 2.29  16 2.29
  36  0.000  0.249  0.250-  13 2.28  14 2.28   9 2.28  11 2.28
  37  0.500  0.249  0.248-  12 2.28  10 2.28  13 2.29  14 2.29
  38  0.000  0.751  0.250-  15 2.28  16 2.28   9 2.28  11 2.28
  39  0.500  0.751  0.248-  12 2.28  10 2.28  15 2.29  16 2.29
  40  0.000  0.000  0.000-   1 3.13   2 3.13   3 3.13   4 3.13  13 3.13  14 3.13  15 3.13  16 3.13

  LATTYP: Found a simple tetragonal cell.
 ALAT       =     7.5265526867
 C/A-ratio  =     1.5781187256

  Lattice vectors:

 A1 = (   7.5265526867,   0.0000000000,   0.0000000000)
 A2 = (   0.0000000000,   7.5265526867,   0.0000000000)
 A3 = (   0.0000000000,   0.0000000000,  11.8777937341)

Analysis of symmetry for initial positions (statically):
 Subroutine PRICEL returns:
 Original cell was already a primitive cell.

 Routine SETGRP: Setting up the symmetry group for a
 simple tetragonal supercell.

 Subroutine GETGRP returns: Found 16 space group operations
 (whereof 16 operations were pure point group operations)
 out of a pool of 16 trial point group operations.

The static configuration has the point symmetry D_4h.

Analysis of symmetry for dynamics (positions and initial velocities):
 Subroutine PRICEL returns:
 Original cell was already a primitive cell.

 Routine SETGRP: Setting up the symmetry group for a
 simple tetragonal supercell.

 Subroutine GETGRP returns: Found 16 space group operations
 (whereof 16 operations were pure point group operations)
 out of a pool of 16 trial point group operations.

The dynamic configuration has the point symmetry D_4h.

 Subroutine INISYM returns: Found 16 space group operations
 (whereof 16 operations are pure point group operations),
 and found     1 'primitive' translations

                                     Primitive cell

  volume of cell :     672.8651

  direct lattice vectors                    reciprocal lattice vectors
     7.526552687  0.000000000  0.000000000     0.132862951  0.000000000  0.000000000
     0.000000000  7.526552687  0.000000000     0.000000000  0.132862951  0.000000000
     0.000000000  0.000000000 11.877793734     0.000000000  0.000000000  0.084190719

  length of vectors
     7.526552687  7.526552687 11.877793734     0.132862951  0.132862951  0.084190719

  position of ions in fractional coordinates (direct lattice)
     0.248606181  0.248606181  0.859689980
     0.751393819  0.248606181  0.859689980
     0.248606181  0.751393819  0.859689980
     0.751393819  0.751393819  0.859689980
     0.000000000  0.000000000  0.641035078
     0.500000000  0.000000000  0.641998368
     0.000000000  0.500000000  0.641998368
     0.500000000  0.500000000  0.643035368
     0.000000000  0.000000000  0.358964922
     0.500000000  0.000000000  0.358001632
     0.000000000  0.500000000  0.358001632
     0.500000000  0.500000000  0.356964632
     0.248606181  0.248606181  0.140310020
     0.751393819  0.248606181  0.140310020
     0.248606181  0.751393819  0.140310020
     0.751393819  0.751393819  0.140310020
     0.500000000  0.000000000  0.000000000
     0.000000000  0.500000000  0.000000000
     0.500000000  0.500000000  0.000000000
     0.250554610  0.250554610  0.500000000
     0.749445390  0.250554610  0.500000000
     0.250554610  0.749445390  0.500000000
     0.749445390  0.749445390  0.500000000
     0.000000000  0.249348717  0.750142389
     0.500000000  0.249479615  0.751619714
     0.000000000  0.750651283  0.750142389
     0.500000000  0.750520385  0.751619714
     0.249348717  0.000000000  0.750142389
     0.750651283  0.000000000  0.750142389
     0.249479615  0.500000000  0.751619714
     0.750520385  0.500000000  0.751619714
     0.249348717  0.000000000  0.249857611
     0.750651283  0.000000000  0.249857611
     0.249479615  0.500000000  0.248380286
     0.750520385  0.500000000  0.248380286
     0.000000000  0.249348717  0.249857611
     0.500000000  0.249479615  0.248380286
     0.000000000  0.750651283  0.249857611
     0.500000000  0.750520385  0.248380286
     0.000000000  0.000000000  0.000000000

  ion indices of the primitive-cell ions
   primitive index   ion index
                 1           1
                 2           2
                 3           3
                 4           4
                 5           5
                 6           6
                 7           7
                 8           8
                 9           9
                10          10
                11          11
                12          12
                13          13
                14          14
                15          15
                16          16
                17          17
                18          18
                19          19
                20          20
                21          21
                22          22
                23          23
                24          24
                25          25
                26          26
                27          27
                28          28
                29          29
                30          30
                31          31
                32          32
                33          33
                34          34
                35          35
                36          36
                37          37
                38          38
                39          39
                40          40

 KPOINTS: K-Spacing Value to Generate K-Mesh: 0.03

Automatic generation of k-mesh.
 Grid dimensions read from file:
 generate k-points for:    4    4    3

 Generating k-lattice:

[...]

[...]

 d Force = 0.4402464E-12[-0.182E-10, 0.190E-10]  d Energy =-0.1673470E-09 0.168E-09
 d Force = 0.3041052E-03[ 0.304E-03, 0.304E-03]  d Ewald  = 0.3041057E-03-0.487E-09

--------------------------------------- Ionic step        6  -------------------------------------------

[...]

 eigenvalue-minimisations  :  3048
 total energy-change (2. order) :-0.2855813E-09  (-0.7336863E-12)
 number of electron     384.0000007 magnetization
 augmentation part       95.0424675 magnetization

 Broyden mixing:
  rms(total) = 0.86313E-07    rms(broyden)= 0.86294E-07
  rms(prec ) = 0.99541E-07
  weight for this iteration     100.00

 eigenvalues of (default mixing * dielectric matrix)
  average eigenvalue GAMMA=   1.2231
  1.6064  1.6064  0.4563

[...]

--------------------------------------- Iteration      6(   5)  ---------------------------------------

 eigenvalue-minimisations  :  3048
 total energy-change (2. order) : 0.3801688E-09  (-0.9541557E-13)
 number of electron     384.0000007 magnetization
 augmentation part       95.0424675 magnetization

 Free energy of the ion-electron system (eV)
  alpha Z        PSCENC =      1501.27596003
  Ewald energy   TEWEN  =    -31159.69307411
  -Hartree energ DENC   =    -10552.64280410
  -exchange      EXHF   =         0.00000000
  -V(xc)+E(xc)   XCENC  =      1264.24306937
  PAW double counting   =     37323.83994390   -36731.26469090
  entropy T*S    EENTRO =        -0.00000000
  eigenvalues    EBANDS =     -2193.04555119
  atomic energy  EATOM  =     40341.65184589
  Solvation  Ediel_sol  =         0.00000000
  free energy    TOTEN  =      -205.63530111 eV

  energy without entropy =     -205.63530111  energy(sigma->0) =     -205.63530111

 average (electrostatic) potential at core
  the test charge radii are     1.0856  1.0808  0.7215  0.9698
  (the norm of the test charge is              1.0000)
       1-103.0641       2-103.0641       3-103.0641       4-103.0641       5-103.0605
       6-103.0619       7-103.0619       8-103.0516       9-103.0605      10-103.0619
      11-103.0619      12-103.0516      13-103.0641      14-103.0641      15-103.0641
      16-103.0641      17 -49.2898      18 -49.2898      19 -49.2515      20 -49.2813
      21 -49.2813      22 -49.2813      23 -49.2813      24 -67.4440      25 -67.4214
      26 -67.4440      27 -67.4214      28 -67.4440      29 -67.4440      30 -67.4214
      31 -67.4214      32 -67.4440      33 -67.4440      34 -67.4214      35 -67.4214
      36 -67.4440      37 -67.4214      38 -67.4440      39 -67.4214      40 -82.4331

 E-fermi :   7.9901     XC(G=0): -11.1339     alpha+bet :-13.6082

 val. band max:        7.7081712445   @ k =   0.0000   0.0000   0.3333
 cond. band min:       8.4687822592   @ k =   0.0000   0.0000   0.0000
 fundamental gap:      0.7606110147
 Fermi energy:         7.9901091709

[...]

 k-point    12 :       0.5000    0.5000    0.3333
  band No.  band energies     occupation
      1     -15.2135      2.00000
      2     -15.2079      2.00000
      3     -15.2079      2.00000
      4     -15.2045      2.00000
      5     -15.2021      2.00000
      6     -15.1990      2.00000
      7     -15.1990      2.00000
      8     -15.1931      2.00000
      9     -15.0987      2.00000
     10     -15.0935      2.00000
     11     -15.0935      2.00000
     12     -15.0921      2.00000
     13     -15.0821      2.00000
     14     -15.0767      2.00000
     15     -15.0767      2.00000
     16     -15.0756      2.00000
     17     -15.0029      2.00000
     18     -15.0013      2.00000
     19     -15.0013      2.00000
     20     -14.9993      2.00000
     21     -14.9897      2.00000
     22     -14.9865      2.00000
     23     -14.9865      2.00000
     24     -14.9750      2.00000
     25     -14.9578      2.00000
     26     -14.9553      2.00000
     27     -14.9553      2.00000
     28     -14.9525      2.00000
     29     -14.9491      2.00000
     30     -14.9481      2.00000
     31     -14.9471      2.00000
     32     -14.9471      2.00000
     33     -14.9452      2.00000
     34     -14.9452      2.00000
     35     -14.9449      2.00000
     36     -14.9436      2.00000
     37     -14.9421      2.00000
     38     -14.9408      2.00000
     39     -14.9408      2.00000
     40     -14.9402      2.00000
     41     -14.9363      2.00000
     42     -14.9345      2.00000
     43     -14.9342      2.00000
     44     -14.9342      2.00000
     45     -14.9326      2.00000
     46     -14.9326      2.00000
     47     -14.9270      2.00000
     48     -14.9249      2.00000
     49     -14.9163      2.00000
     50     -14.9163      2.00000
     51     -14.9159      2.00000
     52     -14.9159      2.00000
     53     -14.9154      2.00000
     54     -14.9147      2.00000
     55     -14.9124      2.00000
     56     -14.9123      2.00000
     57     -14.8998      2.00000
     58     -14.8985      2.00000
     59     -14.8974      2.00000
     60     -14.8974      2.00000
[...]
    218      12.8265      0.00000
    219      12.8366      0.00000
    220      12.8584      0.00000
    221      13.0471      0.00000
    222      13.0471      0.00000
    223      13.0481      0.00000
    224      13.0761      0.00000
    225      13.4943      0.00000
    226      13.5320      0.00000
    227      13.5320      0.00000
    228      13.5350      0.00000
    229      13.5815      0.00000
    230      13.5816      0.00000
    231      13.6658      0.00000
    232      13.7030      0.00000

 soft charge-density along one line, spin component           1
         0         1         2         3         4         5         6         7         8         9
 total charge-density along one line

------------------------ aborting loop because EDIFF is reached ----------------------------------------

  FORCE on cell =-STRESS in cart. coord.  units (eV):
  Direction    XX          YY          ZZ          XY          YZ          ZX
  Alpha Z  1501.27596  1501.27596  1501.27596
  Ewald   -9193.51902 -9193.51902-12772.77004     0.00000     0.00000    -0.00000
  Hartree  4635.28948  4635.28948  1282.06384    -0.00000    -0.00000    -0.00000
  E(xc)   -1837.03957 -1837.03957 -1837.89652     0.00000     0.00000     0.00000
  Local   -3835.59812 -3835.59812  3114.74246    -0.00000     0.00000     0.00000
  n-local  1603.67960  1608.16147  1620.47833     0.83685    -0.05973     0.15292
  augment  2176.56720  2176.56720  2159.73100    -0.00000     0.00000     0.00000
  Kinetic  5001.50353  5009.57153  4978.30990    -4.47083     0.47000    -0.69600
  Fock        0.00000     0.00000     0.00000     0.00000     0.00000     0.00000
  Total      58.43400    58.43400    45.93494     0.00000     0.00000     0.00000
  in kB     139.13878   139.13878   109.37692     0.00000     0.00000     0.00000

 VOLUME and BASIS-vectors are now :
  energy-cutoff  :      520.00
  volume of cell :      672.87
      direct lattice vectors                 reciprocal lattice vectors
     7.526552687  0.000000000  0.000000000     0.132862951  0.000000000  0.000000000
     0.000000000  7.526552687  0.000000000     0.000000000  0.132862951  0.000000000
     0.000000000  0.000000000 11.877793734     0.000000000  0.000000000  0.084190719

  length of vectors
     7.526552687  7.526552687 11.877793734     0.132862951  0.132862951  0.084190719

 FORCES acting on ions
    electron-ion (+dipol)            ewald-force                    non-local-force                 convergence-correction
   -.804E+01 -.804E+01 -.413E+03   0.789E+01 0.789E+01 0.425E+03   0.151E+00 0.151E+00 -.118E+02   -.874E-07 -.874E-07 0.758E-07
   0.804E+01 -.804E+01 -.413E+03   -.789E+01 0.789E+01 0.425E+03   -.151E+00 0.151E+00 -.118E+02   0.874E-07 -.874E-07 0.758E-07
   -.804E+01 0.804E+01 -.413E+03   0.789E+01 -.789E+01 0.425E+03   0.151E+00 -.151E+00 -.118E+02   -.874E-07 0.874E-07 0.758E-07
   0.804E+01 0.804E+01 -.413E+03   -.789E+01 -.789E+01 0.425E+03   -.151E+00 -.151E+00 -.118E+02   0.874E-07 0.874E-07 0.758E-07
   -.278E-13 0.592E-12 0.446E+03   -.284E-13 -.284E-13 -.458E+03   0.561E-19 0.631E-19 0.118E+02   0.235E-11 -.365E-11 -.170E-06
   0.122E-11 0.163E-11 0.444E+03   -.568E-13 -.133E-13 -.455E+03   -.771E-18 0.852E-18 0.117E+02   -.234E-11 -.419E-11 -.112E-06
   0.228E-11 0.173E-10 0.444E+03   -.568E-13 -.284E-13 -.455E+03   0.717E-18 -.407E-18 0.117E+02   -.151E-11 0.314E-11 -.112E-06
   0.115E-11 0.378E-11 0.443E+03   -.568E-13 0.104E-12 -.455E+03   -.378E-19 0.647E-19 0.116E+02   0.134E-11 0.497E-11 -.161E-08
   0.225E-11 0.208E-11 -.446E+03   0.853E-13 -.284E-13 0.458E+03   0.119E-18 0.200E-18 -.118E+02   0.531E-12 0.533E-12 0.170E-06
   0.112E-11 0.288E-11 -.444E+03   0.000E+00 0.178E-13 0.455E+03   0.242E-17 0.204E-18 -.117E+02   -.695E-12 0.150E-11 0.112E-06
   -.729E-13 0.418E-13 -.444E+03   -.142E-12 0.284E-13 0.455E+03   -.249E-17 0.506E-18 -.117E+02   -.259E-11 0.641E-12 0.112E-06
   0.115E-11 0.293E-13 -.443E+03   0.000E+00 -.355E-13 0.455E+03   0.412E-19 0.256E-19 -.116E+02   0.258E-11 -.269E-12 0.160E-08
   -.804E+01 -.804E+01 0.413E+03   0.789E+01 0.789E+01 -.425E+03   0.151E+00 0.151E+00 0.118E+02   -.874E-07 -.874E-07 -.758E-07
   0.804E+01 -.804E+01 0.413E+03   -.789E+01 0.789E+01 -.425E+03   -.151E+00 0.151E+00 0.118E+02   0.874E-07 -.874E-07 -.758E-07
   -.804E+01 0.804E+01 0.413E+03   0.789E+01 -.789E+01 -.425E+03   0.151E+00 -.151E+00 0.118E+02   -.874E-07 0.874E-07 -.758E-07
   0.804E+01 0.804E+01 0.413E+03   -.789E+01 -.789E+01 -.425E+03   -.151E+00 -.151E+00 0.118E+02   0.874E-07 0.874E-07 -.758E-07
   -.341E-13 0.117E-12 0.129E-11   0.142E-12 0.426E-13 0.242E-11   0.946E-27 -.235E-27 -.681E-27   -.124E-11 -.581E-12 0.314E-11
   -.266E-13 -.252E-13 0.109E-12   -.114E-12 0.568E-13 0.243E-11   0.675E-28 0.226E-26 -.695E-27   -.785E-12 0.124E-11 0.204E-11
   -.343E-13 0.391E-12 -.221E-11   0.568E-13 0.000E+00 0.262E-11   0.491E-27 0.642E-27 0.314E-27   0.783E-12 0.826E-12 0.260E-11
   -.225E+01 -.225E+01 -.143E-06   0.226E+01 0.226E+01 -.132E-10   -.969E-02 -.969E-02 -.349E-20   -.293E-08 -.293E-08 -.424E-11
   0.225E+01 -.225E+01 -.499E-11   -.226E+01 0.226E+01 -.132E-10   0.969E-02 -.969E-02 0.275E-20   0.293E-08 -.293E-08 -.541E-11
   -.225E+01 0.225E+01 -.217E-11   0.226E+01 -.226E+01 -.132E-10   -.969E-02 0.969E-02 0.952E-20   -.293E-08 0.293E-08 -.355E-11
   0.225E+01 0.225E+01 0.143E-06   -.226E+01 -.226E+01 -.132E-10   0.969E-02 0.969E-02 0.235E-20   0.293E-08 0.293E-08 -.319E-11
   -.188E-13 -.313E+01 0.937E+01   0.426E-13 0.315E+01 -.953E+01   0.433E-18 -.224E-01 0.152E+00   0.165E-11 -.835E-07 0.315E-06
   0.219E-12 -.254E+01 0.332E+01   0.284E-13 0.255E+01 -.317E+01   0.223E-18 -.128E-01 -.144E+00   -.177E-11 -.961E-07 0.298E-06
   0.525E-12 0.313E+01 0.937E+01   0.284E-13 -.315E+01 -.953E+01   0.310E-18 0.224E-01 0.152E+00   -.449E-13 0.835E-07 0.315E-06
   0.221E-12 0.254E+01 0.332E+01   0.000E+00 -.255E+01 -.317E+01   0.313E-19 0.128E-01 -.144E+00   -.120E-12 0.961E-07 0.298E-06
   -.313E+01 0.113E-11 0.937E+01   0.315E+01 -.213E-13 -.953E+01   -.224E-01 -.197E-19 0.152E+00   -.835E-07 -.114E-11 0.315E-06
   0.313E+01 0.619E-12 0.937E+01   -.315E+01 -.284E-13 -.953E+01   0.224E-01 -.117E-18 0.152E+00   0.835E-07 -.244E-11 0.315E-06
   -.254E+01 0.544E-12 0.332E+01   0.255E+01 0.142E-13 -.317E+01   -.128E-01 0.426E-19 -.144E+00   -.961E-07 0.103E-11 0.298E-06
   0.254E+01 0.375E-11 0.332E+01   -.255E+01 -.142E-13 -.317E+01   0.128E-01 0.286E-18 -.144E+00   0.961E-07 0.326E-11 0.298E-06
   -.313E+01 0.212E-12 -.937E+01   0.315E+01 0.426E-13 0.953E+01   -.224E-01 0.158E-18 -.152E+00   -.835E-07 0.244E-12 -.315E-06
   0.313E+01 -.801E-12 -.937E+01   -.315E+01 0.000E+00 0.953E+01   0.224E-01 0.935E-19 -.152E+00   0.835E-07 0.255E-11 -.315E-06
   -.254E+01 0.103E-11 -.332E+01   0.255E+01 -.355E-14 0.317E+01   -.128E-01 -.161E-18 0.144E+00   -.961E-07 -.485E-13 -.298E-06
   0.254E+01 0.379E-11 -.332E+01   -.255E+01 0.000E+00 0.317E+01   0.128E-01 0.936E-19 0.144E+00   0.961E-07 0.579E-15 -.298E-06
   -.770E-13 -.313E+01 -.937E+01   0.568E-13 0.315E+01 0.953E+01   -.364E-18 -.224E-01 -.152E+00   -.465E-12 -.835E-07 -.315E-06
   0.180E-12 -.254E+01 -.332E+01   0.853E-13 0.255E+01 0.317E+01   -.143E-18 -.128E-01 0.144E+00   0.520E-12 -.961E-07 -.298E-06
   0.465E-12 0.313E+01 -.937E+01   0.284E-13 -.315E+01 0.953E+01   -.563E-18 0.224E-01 -.152E+00   0.492E-12 0.835E-07 -.315E-06
   0.185E-12 0.254E+01 -.332E+01   0.142E-13 -.255E+01 0.317E+01   0.132E-18 0.128E-01 0.144E+00   -.467E-12 0.961E-07 -.298E-06
   -.736E-13 0.239E-11 0.879E-11   0.284E-13 0.284E-13 0.222E-11   0.666E-27 -.223E-26 0.817E-26   0.129E-11 -.953E-12 0.175E-11
   0.904E-11 0.979E-10 -.313E-09   0.128E-12 -.195E-13 0.590E-12   -.938E-18 -.278E-16 -.107E-13   0.125E-12 -.265E-11 0.385E-10

 POSITION                                       TOTAL-FORCE (eV/Angst)
      1.87115      1.87115     10.21122         0.000001      0.000001      0.000004
      5.65541      1.87115     10.21122        -0.000001      0.000001      0.000004
      1.87115      5.65541     10.21122         0.000001     -0.000001      0.000004
      5.65541      5.65541     10.21122        -0.000001     -0.000001      0.000004
      0.00000      7.52655      7.61408        -0.000000     -0.000000      0.000006
      3.76328      7.52655      7.62552        -0.000000      0.000000      0.000000
      7.52655      3.76328      7.62552        -0.000000     -0.000000      0.000000
      3.76328      3.76328      7.63784         0.000000     -0.000000     -0.000004
      7.52655      0.00000      4.26371         0.000000     -0.000000     -0.000006
      3.76328      7.52655      4.25227        -0.000000      0.000000     -0.000000
      0.00000      3.76328      4.25227         0.000000      0.000000     -0.000000
      3.76328      3.76328      4.23995        -0.000000      0.000000      0.000004
      1.87115      1.87115      1.66657         0.000001      0.000001     -0.000004
      5.65541      1.87115      1.66657        -0.000001      0.000001     -0.000004
      1.87115      5.65541      1.66657         0.000001     -0.000001     -0.000004
      5.65541      5.65541      1.66657        -0.000001     -0.000001     -0.000004
      3.76328      7.52655     11.87779        -0.000000      0.000000      0.000000
      0.00000      3.76328     11.87779        -0.000000     -0.000000      0.000000
      3.76328      3.76328      0.00000        -0.000000     -0.000000      0.000000
      1.88581      1.88581      5.93890        -0.000001     -0.000001      0.000000
      5.64074      1.88581      5.93890         0.000001     -0.000001      0.000000
      1.88581      5.64074      5.93890        -0.000001      0.000001      0.000000
      5.64074      5.64074      5.93890         0.000001      0.000001      0.000000
      0.00000      1.87674      8.91004         0.000000      0.000002      0.000007
      3.76328      1.87772      8.92758         0.000000      0.000002      0.000005
      7.52655      5.64982      8.91004         0.000000     -0.000002      0.000007
      3.76328      5.64883      8.92758        -0.000000     -0.000002      0.000005
      1.87674      0.00000      8.91004         0.000002      0.000000      0.000007
      5.64982      0.00000      8.91004        -0.000002     -0.000000      0.000007
      1.87772      3.76328      8.92758         0.000002     -0.000000      0.000005
      5.64883      3.76328      8.92758        -0.000002      0.000000      0.000005
      1.87674      7.52655      2.96776         0.000002      0.000000     -0.000007
      5.64982      7.52655      2.96776        -0.000002      0.000000     -0.000007
      1.87772      3.76328      2.95021         0.000002      0.000000     -0.000005
      5.64883      3.76328      2.95021        -0.000002      0.000000     -0.000005
      0.00000      1.87674      2.96776        -0.000000      0.000002     -0.000007
      3.76328      1.87772      2.95021        -0.000000      0.000002     -0.000005
      7.52655      5.64982      2.96776        -0.000000     -0.000002     -0.000007
      3.76328      5.64883      2.95021        -0.000000     -0.000002     -0.000005
      7.52655      7.52655     11.87779        -0.000000      0.000000      0.000000
    total drift:                                0.000000      0.000000     -0.000000

  FREE ENERGIE OF THE ION-ELECTRON SYSTEM (eV)
  free  energy   TOTEN  =      -205.63530111 eV

  energy  without entropy=     -205.63530111  energy(sigma->0) =     -205.63530111

 d Force = 0.4864688E-11[ 0.867E-12, 0.886E-11]  d Energy = 0.3437890E-09-0.339E-09
 d Force =-0.1484527E-03[-0.148E-03,-0.148E-03]  d Ewald  =-0.1484524E-03-0.331E-09

 reached required accuracy - stopping structural energy minimisation