 vasp.6.4.3 19Mar24 (build Apr 09 2025 20:43:19) complex

 executed on             LinuxIFC date 2025.04.17  06:49:48

 INCAR:
   PREC = Accurate
   IBRION = 2
   NSW = 100
   NELMIN = 5
   ISIF = 2
   ENCUT = 520
   EDIFF = 1.000000e-08
   EDIFFG = -1.000000e-5
   ISMEAR = 0
   SIGMA = 0.05
   IALGO = 38
   LREAL = .FALSE.
   ADDGRID = .TRUE.
   LWAVE = .FALSE.
   LCHARG = .FALSE.
   NCORE = 9

 POTCAR:    PAW_PBE Bi_d 06Sep2000
 POTCAR:    PAW_PBE Se 06Sep2000
 POTCAR:    PAW_PBE O 08Apr2002
 POTCAR:    PAW_PBE S 06Sep2000
 POTCAR:    PAW_PBE Bi_d 06Sep2000
   VRHFIN =Bi:

   TITEL  = PAW_PBE Bi_d 06Sep2000
   POMASS =  208.980; ZVAL   =   15.000    mass and valenz
   ENMAX  =  242.839; ENMIN  =  182.129 eV

   TITEL  = PAW_PBE Se 06Sep2000
   POMASS =   78.960; ZVAL   =    6.000    mass and valenz
   ENMAX  =  211.555; ENMIN  =  158.666 eV

   TITEL  = PAW_PBE O 08Apr2002
   POMASS =   16.000; ZVAL   =    6.000    mass and valenz
   ENMAX  =  400.000; ENMIN  =  300.000 eV

   TITEL  = PAW_PBE S 06Sep2000
   POMASS =   32.066; ZVAL   =    6.000    mass and valenz
   ENMAX  =  258.689; ENMIN  =  194.016 eV

  PAW_PBE Bi_d 06Sep2000                :
  PAW_PBE Se 06Sep2000                  :
  PAW_PBE O 08Apr2002                   :
  PAW_PBE S 06Sep2000                   :

 POSCAR: generated by phonopy
  positions in direct lattice
  velocities in cartesian coordinates

 exchange-correlation table for PE
   RHO(1)=    0.500       N(1)  =     2000
   RHO(2)=  100.500       N(2)  =     4000

 ion  position               nearest neighbor table
   1  0.247  0.247  0.849-  24 2.37  28 2.37  25 2.42  30 2.42   8 3.79   7 3.81   6 3.81  13 3.88
                             5 3.88
   2  0.753  0.247  0.849-  24 2.37  29 2.37  25 2.42  31 2.42   8 3.79   7 3.81   6 3.81  14 3.88
                             5 3.88
   3  0.247  0.753  0.849-  26 2.37  28 2.37  27 2.42  30 2.42   8 3.79   7 3.81   6 3.81  15 3.88
                             5 3.88
   4  0.753  0.753  0.849-  26 2.37  29 2.37  27 2.42  31 2.42   8 3.79   7 3.81   6 3.81  16 3.88
                             5 3.88
   5  0.000  0.000  0.644-  24 2.50  26 2.50  28 2.50  29 2.50  20 3.28  21 3.28  22 3.28  23 3.28
                             9 3.71   2 3.88   3 3.88   4 3.88   1 3.88
   6  0.500  0.000  0.656-  28 2.36  29 2.36  25 2.40  27 2.40   1 3.81   2 3.81   3 3.81   4 3.81

   7  0.000  0.500  0.656-  24 2.36  26 2.36  30 2.40  31 2.40   1 3.81   2 3.81   3 3.81   4 3.81

[...]

   9  0.000  0.000  0.356-  32 2.50  33 2.50  36 2.50  38 2.50  20 3.28  21 3.28  22 3.28  23 3.28
                             5 3.71  13 3.88  14 3.88  15 3.88  16 3.88
  10  0.500  0.000  0.344-  32 2.36  33 2.36  37 2.40  39 2.40  13 3.81  14 3.81  15 3.81  16 3.81

[...]

  12  0.500  0.500  0.338-  34 2.32  35 2.32  37 2.32  39 2.32  13 3.79  14 3.79  15 3.79  16 3.79

  13  0.247  0.247  0.151-  32 2.37  36 2.37  34 2.42  37 2.42  12 3.79  11 3.81  10 3.81   1 3.88
                             9 3.88
  14  0.753  0.247  0.151-  33 2.37  36 2.37  35 2.42  37 2.42  12 3.79  11 3.81  10 3.81   2 3.88
                             9 3.88
  15  0.247  0.753  0.151-  32 2.37  38 2.37  34 2.42  39 2.42  12 3.79  11 3.81  10 3.81   3 3.88
                             9 3.88
  16  0.753  0.753  0.151-  33 2.37  38 2.37  35 2.42  39 2.42  12 3.79  11 3.81  10 3.81   4 3.88
                             9 3.88
  17  0.500  0.000  0.000-
  18  0.000  0.500  0.000-
  19  0.500  0.500  0.000-
  20  0.235  0.235  0.500-   5 3.28   9 3.28
  21  0.765  0.235  0.500-   5 3.28   9 3.28
  22  0.235  0.765  0.500-   5 3.28   9 3.28
  23  0.765  0.765  0.500-   5 3.28   9 3.28
  24  0.000  0.254  0.753-   7 2.36   2 2.37   1 2.37   5 2.50
  25  0.500  0.253  0.751-   8 2.32   6 2.40   1 2.42   2 2.42
  26  0.000  0.746  0.753-   7 2.36   4 2.37   3 2.37   5 2.50
  27  0.500  0.747  0.751-   8 2.32   6 2.40   3 2.42   4 2.42
  28  0.254  0.000  0.753-   6 2.36   3 2.37   1 2.37   5 2.50
  29  0.746  0.000  0.753-   6 2.36   4 2.37   2 2.37   5 2.50
  30  0.253  0.500  0.751-   8 2.32   7 2.40   1 2.42   3 2.42
  31  0.747  0.500  0.751-   8 2.32   7 2.40   2 2.42   4 2.42
  32  0.254  0.000  0.247-  10 2.36  13 2.37  15 2.37   9 2.50
  33  0.746  0.000  0.247-  10 2.36  14 2.37  16 2.37   9 2.50
  34  0.253  0.500  0.249-  12 2.32  11 2.40  13 2.42  15 2.42
  35  0.747  0.500  0.249-  12 2.32  11 2.40  14 2.42  16 2.42
  36  0.000  0.254  0.247-  11 2.36  13 2.37  14 2.37   9 2.50
  37  0.500  0.253  0.249-  12 2.32  10 2.40  13 2.42  14 2.42
  38  0.000  0.746  0.247-  11 2.36  15 2.37  16 2.37   9 2.50
  39  0.500  0.747  0.249-  12 2.32  10 2.40  15 2.42  16 2.42
  40  0.000  0.000  0.000-

  LATTYP: Found a simple tetragonal cell.
 ALAT       =     8.1537654106
 C/A-ratio  =     1.5781187256

  Lattice vectors:

 A1 = (   8.1537654106,   0.0000000000,   0.0000000000)
 A2 = (   0.0000000000,   8.1537654106,   0.0000000000)
 A3 = (   0.0000000000,   0.0000000000,  12.8676098787)

Analysis of symmetry for initial positions (statically):
 Subroutine PRICEL returns:
 Original cell was already a primitive cell.

 Routine SETGRP: Setting up the symmetry group for a
 simple tetragonal supercell.

 Subroutine GETGRP returns: Found 16 space group operations
 (whereof 16 operations were pure point group operations)
 out of a pool of 16 trial point group operations.

The static configuration has the point symmetry D_4h.

Analysis of symmetry for dynamics (positions and initial velocities):
 Subroutine PRICEL returns:
 Original cell was already a primitive cell.

 Routine SETGRP: Setting up the symmetry group for a
 simple tetragonal supercell.

 Subroutine GETGRP returns: Found 16 space group operations
 (whereof 16 operations were pure point group operations)
 out of a pool of 16 trial point group operations.

The dynamic configuration has the point symmetry D_4h.

 Subroutine INISYM returns: Found 16 space group operations
 (whereof 16 operations are pure point group operations),
 and found     1 'primitive' translations

                                     Primitive cell

  volume of cell :     855.4888

  direct lattice vectors                    reciprocal lattice vectors
     8.153765411  0.000000000  0.000000000     0.122642724  0.000000000  0.000000000
     0.000000000  8.153765411  0.000000000     0.000000000  0.122642724  0.000000000
     0.000000000  0.000000000 12.867609879     0.000000000  0.000000000  0.077714510

  length of vectors
     8.153765411  8.153765411 12.867609879     0.122642724  0.122642724  0.077714510

  position of ions in fractional coordinates (direct lattice)
     0.246874162  0.246874162  0.849242874
     0.753125838  0.246874162  0.849242874
     0.246874162  0.753125838  0.849242874
     0.753125838  0.753125838  0.849242874
     0.000000000  0.000000000  0.644158160
     0.500000000  0.000000000  0.655784282
     0.000000000  0.500000000  0.655784282
     0.500000000  0.500000000  0.661741949
     0.000000000  0.000000000  0.355841840
     0.500000000  0.000000000  0.344215718
     0.000000000  0.500000000  0.344215718
     0.500000000  0.500000000  0.338258051
     0.246874162  0.246874162  0.150757126
     0.753125838  0.246874162  0.150757126
     0.246874162  0.753125838  0.150757126
     0.753125838  0.753125838  0.150757126
     0.500000000  0.000000000  0.000000000
     0.000000000  0.500000000  0.000000000
     0.500000000  0.500000000  0.000000000
     0.235076606  0.235076606  0.500000000
     0.764923394  0.235076606  0.500000000
     0.235076606  0.764923394  0.500000000
     0.764923394  0.764923394  0.500000000
     0.000000000  0.253971272  0.752854819
     0.500000000  0.252549535  0.751139337
     0.000000000  0.746028728  0.752854819
     0.500000000  0.747450465  0.751139337
     0.253971272  0.000000000  0.752854819
     0.746028728  0.000000000  0.752854819
     0.252549535  0.500000000  0.751139337
     0.747450465  0.500000000  0.751139337
     0.253971272  0.000000000  0.247145181
     0.746028728  0.000000000  0.247145181
     0.252549535  0.500000000  0.248860663
     0.747450465  0.500000000  0.248860663
     0.000000000  0.253971272  0.247145181
     0.500000000  0.252549535  0.248860663
     0.000000000  0.746028728  0.247145181
     0.500000000  0.747450465  0.248860663
     0.000000000  0.000000000  0.000000000

  ion indices of the primitive-cell ions
   primitive index   ion index
                 1           1
                 2           2
                 3           3
                 4           4
                 5           5
                 6           6
                 7           7
                 8           8
                 9           9
                10          10
                11          11
                12          12
                13          13
                14          14
                15          15
                16          16
                17          17
                18          18
                19          19
                20          20
                21          21
                22          22
                23          23
                24          24
                25          25
                26          26
                27          27
                28          28
                29          29
                30          30
                31          31
                32          32
                33          33
                34          34
                35          35
                36          36
                37          37
                38          38
                39          39
                40          40

 KPOINTS: K-Spacing Value to Generate K-Mesh: 0.03

Automatic generation of k-mesh.
 Grid dimensions read from file:
 generate k-points for:    4    4    3

 Generating k-lattice:

  Cartesian coordinates                     Fractional coordinates (reciprocal lattice)
     0.030660681  0.000000000  0.000000000     0.250000000  0.000000000  0.000000000
     0.000000000  0.030660681  0.000000000     0.000000000  0.250000000  0.000000000
     0.000000000  0.000000000  0.025904837     0.000000000  0.000000000  0.333333333

  Length of vectors
     0.030660681  0.030660681  0.025904837

  Shift w.r.t. Gamma in fractional coordinates (k-lattice)
     0.000000000  0.000000000  0.000000000

 Subroutine IBZKPT returns following result:

 Found     12 irreducible k-points:

 Following reciprocal coordinates:
            Coordinates               Weight
  0.000000  0.000000  0.000000      1.000000
  0.250000  0.000000  0.000000      4.000000
  0.500000  0.000000  0.000000      2.000000
  0.250000  0.250000  0.000000      4.000000
  0.500000  0.250000  0.000000      4.000000
  0.500000  0.500000  0.000000      1.000000
  0.000000  0.000000  0.333333      2.000000
  0.250000  0.000000  0.333333      8.000000
  0.500000  0.000000  0.333333      4.000000
  0.250000  0.250000  0.333333      8.000000
  0.500000  0.250000  0.333333      8.000000
  0.500000  0.500000  0.333333      2.000000

 Following cartesian coordinates:
            Coordinates               Weight
  0.000000  0.000000  0.000000      1.000000
[...]
 number of electron     384.0000006 magnetization
 augmentation part       94.9760616 magnetization

 Broyden mixing:
  rms(total) = 0.43119E-06    rms(broyden)= 0.43114E-06
  rms(prec ) = 0.49822E-06
  weight for this iteration     100.00

 eigenvalues of (default mixing * dielectric matrix)
  average eigenvalue GAMMA=   0.8502
  1.0870  1.0870  0.3765

[...]

--------------------------------------- Iteration     20(   5)  ---------------------------------------

 eigenvalue-minimisations  :  2952
 total energy-change (2. order) : 0.7494236E-09  (-0.1858282E-11)
 number of electron     384.0000006 magnetization
 augmentation part       94.9760616 magnetization

 Free energy of the ion-electron system (eV)
  alpha Z        PSCENC =      1180.79420070
  Ewald energy   TEWEN  =    -27711.26922446
  -Hartree energ DENC   =    -12664.54371884
  -exchange      EXHF   =         0.00000000
  -V(xc)+E(xc)   XCENC  =      1241.40748660
  PAW double counting   =     35528.97251888   -34918.24461509
  entropy T*S    EENTRO =        -0.00187681
  eigenvalues    EBANDS =     -3205.38693446
  atomic energy  EATOM  =     40341.65184589
  Solvation  Ediel_sol  =         0.00000000
  free energy    TOTEN  =      -206.62031759 eV

  energy without entropy =     -206.61844078  energy(sigma->0) =     -206.61937918

 average (electrostatic) potential at core
  the test charge radii are     1.0856  1.0808  0.7215  0.9698
  (the norm of the test charge is              1.0000)
       1-106.2177       2-106.2177       3-106.2177       4-106.2177       5-106.1547
       6-106.2094       7-106.2094       8-106.2422       9-106.1547      10-106.2094
      11-106.2094      12-106.2422      13-106.2177      14-106.2177      15-106.2177
      16-106.2177      17 -51.7280      18 -51.7280      19 -51.6266      20 -51.7743
      21 -51.7743      22 -51.7743      23 -51.7743      24 -70.1030      25 -70.1815
      26 -70.1030      27 -70.1815      28 -70.1030      29 -70.1030      30 -70.1815
      31 -70.1815      32 -70.1030      33 -70.1030      34 -70.1815      35 -70.1815
      36 -70.1030      37 -70.1815      38 -70.1030      39 -70.1815      40 -84.9266

 E-fermi :   5.3395     XC(G=0):  -9.8989     alpha+bet :-10.7032

 val. band max:        5.3201015700   @ k =   0.0000   0.0000   0.3333
 cond. band min:       5.4376277467   @ k =   0.0000   0.0000   0.3333
 fundamental gap:      0.1175261767
 Fermi energy:         5.3395098599

[...]

 k-point    12 :       0.5000    0.5000    0.3333
  band No.  band energies     occupation
      1     -18.1543      2.00000
      2     -18.1533      2.00000
      3     -18.1465      2.00000
      4     -18.1465      2.00000
      5     -18.1451      2.00000
      6     -18.1451      2.00000
      7     -18.1193      2.00000
      8     -18.1174      2.00000
      9     -18.0751      2.00000
     10     -18.0716      2.00000
     11     -18.0714      2.00000
     12     -18.0668      2.00000
     13     -18.0659      2.00000
     14     -18.0659      2.00000
     15     -18.0629      2.00000
     16     -18.0629      2.00000
     17     -18.0492      2.00000
     18     -18.0440      2.00000
     19     -18.0309      2.00000
     20     -18.0292      2.00000
     21     -18.0292      2.00000
     22     -18.0273      2.00000
     23     -18.0258      2.00000
     24     -18.0244      2.00000
     25     -18.0238      2.00000
     26     -18.0201      2.00000
     27     -18.0201      2.00000
     28     -18.0199      2.00000
     29     -18.0199      2.00000
     30     -18.0177      2.00000
     31     -18.0167      2.00000
     32     -18.0167      2.00000
     33     -18.0123      2.00000
     34     -18.0102      2.00000
     35     -18.0060      2.00000
     36     -18.0046      2.00000
     37     -18.0043      2.00000
     38     -18.0043      2.00000
     39     -18.0027      2.00000
     40     -18.0023      2.00000
     41     -18.0009      2.00000
     42     -18.0009      2.00000
     43     -17.9974      2.00000
     44     -17.9974      2.00000
     45     -17.9941      2.00000
     46     -17.9941      2.00000
     47     -17.9936      2.00000
     48     -17.9892      2.00000
     49     -17.9838      2.00000
     50     -17.9832      2.00000
     51     -17.9820      2.00000
     52     -17.9820      2.00000
     53     -17.9809      2.00000
     54     -17.9809      2.00000
     55     -17.9778      2.00000
     56     -17.9778      2.00000
     57     -17.9763      2.00000
     58     -17.9763      2.00000
     59     -17.9761      2.00000
     60     -17.9746      2.00000
[...]
    218       8.7005      0.00000
    219       8.7085      0.00000
    220       8.7144      0.00000
    221       8.8331      0.00000
    222       8.8537      0.00000
    223       8.8537      0.00000
    224       8.9455      0.00000
    225       9.3707      0.00000
    226       9.3969      0.00000
    227       9.3969      0.00000
    228       9.5106      0.00000
    229       9.5214      0.00000
    230       9.5281      0.00000
    231       9.5281      0.00000
    232       9.5399      0.00000

 soft charge-density along one line, spin component           1
         0         1         2         3         4         5         6         7         8         9
 total charge-density along one line

------------------------ aborting loop because EDIFF is reached ----------------------------------------

  FORCE on cell =-STRESS in cart. coord.  units (eV):
  Direction    XX          YY          ZZ          XY          YZ          ZX
  Alpha Z  1180.79420  1180.79420  1180.79420
  Ewald   -6852.83433 -6852.83433-14005.71110    -0.00000     0.00000     0.00000
  Hartree  6254.34764  6254.34764   155.84844    -0.00000    -0.00000    -0.00000
  E(xc)   -1817.08773 -1817.08773 -1819.59967    -0.00000     0.00000    -0.00000
  Local   -7442.28982 -7442.28982  5808.22442    -0.00000    -0.00000     0.00000
  n-local  1560.86023  1571.03581  1564.61008     0.15585    -0.05585     0.06561
  augment  2176.40348  2176.40348  2161.91663    -0.00000     0.00000     0.00000
  Kinetic  4890.46691  4900.76009  4925.28454    -2.93011     0.39020    -0.40103
  Fock        0.00000     0.00000     0.00000     0.00000     0.00000     0.00000
  Total     -39.10504   -39.10504   -28.63247     0.00000     0.00000     0.00000
  in kB     -73.23673   -73.23673   -53.62349     0.00000     0.00000     0.00000

 VOLUME and BASIS-vectors are now :
  energy-cutoff  :      520.00
  volume of cell :      855.49
      direct lattice vectors                 reciprocal lattice vectors
     8.153765411  0.000000000  0.000000000     0.122642724  0.000000000  0.000000000
     0.000000000  8.153765411  0.000000000     0.000000000  0.122642724  0.000000000
     0.000000000  0.000000000 12.867609879     0.000000000  0.000000000  0.077714510

  length of vectors
     8.153765411  8.153765411 12.867609879     0.122642724  0.122642724  0.077714510

 FORCES acting on ions
    electron-ion (+dipol)            ewald-force                    non-local-force                 convergence-correction
   -.804E+01 -.804E+01 -.442E+03   0.834E+01 0.834E+01 0.452E+03   -.299E+00 -.299E+00 -.985E+01   0.750E-06 0.750E-06 0.258E-05
   0.804E+01 -.804E+01 -.442E+03   -.834E+01 0.834E+01 0.452E+03   0.299E+00 -.299E+00 -.985E+01   -.750E-06 0.750E-06 0.258E-05
   -.804E+01 0.804E+01 -.442E+03   0.834E+01 -.834E+01 0.452E+03   -.299E+00 0.299E+00 -.985E+01   0.750E-06 -.750E-06 0.258E-05
   0.804E+01 0.804E+01 -.442E+03   -.834E+01 -.834E+01 0.452E+03   0.299E+00 0.299E+00 -.985E+01   -.750E-06 -.750E-06 0.258E-05
   0.214E-13 -.245E-12 0.417E+03   0.128E-12 0.711E-13 -.422E+03   -.797E-18 0.238E-18 0.460E+01   -.220E-11 -.608E-12 0.401E-05
   0.659E-12 0.244E-12 0.507E+03   -.284E-13 -.604E-13 -.517E+03   0.579E-18 0.733E-19 0.104E+02   0.212E-11 0.293E-11 0.228E-05
   -.356E-13 -.543E-12 0.507E+03   -.995E-13 0.284E-13 -.517E+03   -.105E-17 -.562E-18 0.104E+02   -.388E-11 -.982E-12 0.228E-05
   0.668E-12 -.891E-12 0.551E+03   0.256E-12 0.604E-13 -.564E+03   -.199E-19 0.998E-19 0.131E+02   0.388E-11 -.298E-11 0.132E-05
   -.119E-13 0.275E-12 -.417E+03   -.711E-13 0.000E+00 0.422E+03   0.899E-18 -.898E-19 -.460E+01   0.185E-11 -.173E-11 -.401E-05
   0.666E-12 -.214E-12 -.507E+03   0.128E-12 -.462E-13 0.517E+03   -.119E-17 -.917E-19 -.104E+02   -.178E-11 0.892E-12 -.228E-05
   -.410E-13 0.229E-11 -.507E+03   -.853E-13 0.284E-13 0.517E+03   0.554E-18 -.542E-18 -.104E+02   -.213E-12 0.294E-11 -.228E-05
   0.612E-12 -.281E-11 -.551E+03   0.142E-13 -.462E-13 0.564E+03   -.883E-19 -.901E-19 -.131E+02   0.620E-12 0.139E-11 -.132E-05
   -.804E+01 -.804E+01 0.442E+03   0.834E+01 0.834E+01 -.452E+03   -.299E+00 -.299E+00 0.985E+01   0.750E-06 0.750E-06 -.258E-05
   0.804E+01 -.804E+01 0.442E+03   -.834E+01 0.834E+01 -.452E+03   0.299E+00 -.299E+00 0.985E+01   -.750E-06 0.750E-06 -.258E-05
   -.804E+01 0.804E+01 0.442E+03   0.834E+01 -.834E+01 -.452E+03   -.299E+00 0.299E+00 0.985E+01   0.750E-06 -.750E-06 -.258E-05
   0.804E+01 0.804E+01 0.442E+03   -.834E+01 -.834E+01 -.452E+03   0.299E+00 0.299E+00 0.985E+01   -.750E-06 -.750E-06 -.258E-05
   0.673E-13 0.208E-13 -.519E-11   0.000E+00 0.426E-13 0.355E-13   0.390E-27 -.517E-28 0.190E-26   0.167E-11 0.362E-12 -.314E-11
   0.251E-13 0.643E-13 -.827E-13   0.853E-13 0.142E-13 0.782E-13   -.609E-28 -.808E-28 0.262E-26   -.202E-12 -.104E-11 -.327E-11
   0.667E-13 0.160E-11 -.319E-12   -.284E-13 0.142E-13 0.604E-13   -.366E-27 0.418E-27 0.306E-27   0.248E-12 0.661E-13 -.290E-11
   -.326E+02 -.326E+02 -.151E-06   0.328E+02 0.328E+02 -.113E-13   -.158E+00 -.158E+00 0.150E-20   0.115E-05 0.115E-05 0.509E-11
   0.326E+02 -.326E+02 -.459E-11   -.328E+02 0.328E+02 -.645E-13   0.158E+00 -.158E+00 0.899E-20   -.115E-05 0.115E-05 0.749E-11
   -.326E+02 0.326E+02 -.913E-12   0.328E+02 -.328E+02 -.539E-13   -.158E+00 0.158E+00 -.640E-19   0.115E-05 -.115E-05 0.479E-11
   0.326E+02 0.326E+02 0.151E-06   -.328E+02 -.328E+02 -.539E-13   0.158E+00 0.158E+00 0.541E-19   -.115E-05 -.115E-05 0.750E-11
   0.566E-12 0.150E+02 0.137E+02   0.284E-13 -.171E+02 -.150E+02   -.513E-19 0.214E+01 0.133E+01   -.201E-11 0.120E-05 0.249E-05
   0.322E-12 0.578E+01 0.111E+02   -.142E-13 -.717E+01 -.976E+01   0.690E-19 0.140E+01 -.134E+01   0.180E-11 -.250E-06 0.362E-05
   0.679E-13 -.150E+02 0.137E+02   -.142E-13 0.171E+02 -.150E+02   -.200E-18 -.214E+01 0.133E+01   -.273E-11 -.120E-05 0.249E-05
   0.325E-12 -.578E+01 0.111E+02   0.568E-13 0.717E+01 -.976E+01   -.101E-18 -.140E+01 -.134E+01   0.273E-11 0.250E-06 0.362E-05
   0.150E+02 0.124E-12 0.137E+02   -.171E+02 0.355E-14 -.150E+02   0.214E+01 -.219E-18 0.133E+01   0.120E-05 0.772E-12 0.249E-05
   -.150E+02 0.118E-12 0.137E+02   0.171E+02 0.000E+00 -.150E+02   -.214E+01 0.160E-18 0.133E+01   -.120E-05 0.132E-11 0.249E-05
   0.578E+01 -.247E-12 0.111E+02   -.717E+01 0.000E+00 -.976E+01   0.140E+01 -.661E-19 -.134E+01   -.250E-06 -.141E-11 0.362E-05
   -.578E+01 0.238E-11 0.111E+02   0.717E+01 0.000E+00 -.976E+01   -.140E+01 -.528E-18 -.134E+01   0.250E-06 0.230E-11 0.362E-05
   0.150E+02 0.147E-13 -.137E+02   -.171E+02 -.142E-13 0.150E+02   0.214E+01 0.155E-18 -.133E+01   0.120E-05 0.294E-12 -.249E-05
   -.150E+02 -.280E-13 -.137E+02   0.171E+02 -.568E-13 0.150E+02   -.214E+01 -.236E-18 -.133E+01   -.120E-05 0.373E-12 -.249E-05
   0.578E+01 0.101E-12 -.111E+02   -.717E+01 -.249E-13 0.976E+01   0.140E+01 -.533E-18 0.134E+01   -.250E-06 0.232E-12 -.362E-05
   -.578E+01 0.306E-11 -.111E+02   0.717E+01 -.426E-13 0.976E+01   -.140E+01 -.433E-19 0.134E+01   0.250E-06 0.133E-12 -.362E-05
   0.749E-13 0.150E+02 -.137E+02   0.426E-13 -.171E+02 0.150E+02   -.191E-18 0.214E+01 -.133E+01   0.650E-13 0.120E-05 -.249E-05
   0.318E-12 0.578E+01 -.111E+02   0.426E-13 -.717E+01 0.976E+01   -.827E-19 0.140E+01 0.134E+01   0.125E-12 -.250E-06 -.362E-05
   0.681E-13 -.150E+02 -.137E+02   -.426E-13 0.171E+02 0.150E+02   0.462E-19 -.214E+01 -.133E+01   -.478E-13 -.120E-05 -.249E-05
   0.322E-12 -.578E+01 -.111E+02   0.853E-13 0.717E+01 0.976E+01   -.398E-19 -.140E+01 0.134E+01   0.178E-12 0.250E-06 -.362E-05
   0.286E-13 0.273E-13 -.130E-12   -.284E-13 0.000E+00 0.103E-12   0.137E-26 -.131E-26 -.488E-28   -.167E-11 0.114E-11 -.475E-11
   0.182E-10 0.507E-10 0.276E-09   -.142E-12 0.817E-13 -.579E-12   0.444E-15 -.444E-15 0.622E-14   -.155E-11 -.776E-11 -.421E-10

 POSITION                                       TOTAL-FORCE (eV/Angst)
      2.01295      2.01295     10.92773        -0.000002     -0.000002      0.000001
      6.14081      2.01295     10.92773         0.000002     -0.000002      0.000001
      2.01295      6.14081     10.92773        -0.000002      0.000002      0.000001
      6.14081      6.14081     10.92773         0.000002      0.000002      0.000001
      0.00000      0.00000      8.28877         0.000000     -0.000000     -0.000008
      4.07688      0.00000      8.43838         0.000000      0.000000      0.000006
      0.00000      4.07688      8.43838         0.000000     -0.000000      0.000006
      4.07688      4.07688      8.51504        -0.000000     -0.000000      0.000008
      0.00000      0.00000      4.57884        -0.000000     -0.000000      0.000008
      4.07688      0.00000      4.42923         0.000000      0.000000     -0.000006
      0.00000      4.07688      4.42923        -0.000000     -0.000000     -0.000006
      4.07688      4.07688      4.35257         0.000000     -0.000000     -0.000008
      2.01295      2.01295      1.93988        -0.000002     -0.000002     -0.000001
      6.14081      2.01295      1.93988         0.000002     -0.000002     -0.000001
      2.01295      6.14081      1.93988        -0.000002      0.000002     -0.000001
      6.14081      6.14081      1.93988         0.000002      0.000002     -0.000001
      4.07688      0.00000     12.86761         0.000000      0.000000     -0.000000
      0.00000      4.07688     12.86761         0.000000      0.000000     -0.000000
      4.07688      4.07688     12.86761        -0.000000     -0.000000     -0.000000
      1.91675      1.91675      6.43380        -0.000004     -0.000004      0.000000
      6.23701      1.91675      6.43380         0.000004     -0.000004      0.000000
      1.91675      6.23701      6.43380        -0.000004      0.000004     -0.000000
      6.23701      6.23701      6.43380         0.000004      0.000004     -0.000000
      8.15377      2.07083      9.68745         0.000000     -0.000005     -0.000005
      4.07688      2.05923      9.66537        -0.000000     -0.000000     -0.000006
      0.00000      6.08294      9.68745         0.000000      0.000005     -0.000005
      4.07688      6.09453      9.66537         0.000000      0.000000     -0.000006
      2.07083      0.00000      9.68745        -0.000005      0.000000     -0.000005
      6.08294      0.00000      9.68745         0.000005      0.000000     -0.000005
      2.05923      4.07688      9.66537        -0.000000      0.000000     -0.000006
      6.09453      4.07688      9.66537         0.000000      0.000000     -0.000006
      2.07083      0.00000      3.18016        -0.000005     -0.000000      0.000005
      6.08294      0.00000      3.18016         0.000005      0.000000      0.000005
      2.05923      4.07688      3.20224        -0.000000      0.000000      0.000006
      6.09453      4.07688      3.20224         0.000000      0.000000      0.000006
      0.00000      2.07083      3.18016        -0.000000     -0.000005      0.000005
      4.07688      2.05923      3.20224        -0.000000     -0.000000      0.000006
      0.00000      6.08294      3.18016         0.000000      0.000005      0.000005
      4.07688      6.09453      3.20224         0.000000      0.000000      0.000006
      0.00000      0.00000     12.86761        -0.000000      0.000000      0.000000
    total drift:                                0.000000      0.000000      0.000000

  FREE ENERGIE OF THE ION-ELECTRON SYSTEM (eV)
  free  energy   TOTEN  =      -206.62031759 eV

  energy  without entropy=     -206.61844078  energy(sigma->0) =     -206.61937918

 d Force = 0.2978413E-10[ 0.239E-10, 0.357E-10]  d Energy =-0.9295036E-09 0.959E-09
 d Force = 0.2948369E-04[ 0.295E-04, 0.295E-04]  d Ewald  = 0.2948332E-04 0.378E-09

 Conjugate gradient step on ions:
 trial-energy change:    0.000000  1 .order   -0.000000   -0.000000   -0.000000
  (g-gl).g = 0.250E-10      g.g   = 0.116E-09  gl.gl    = 0.227E-09
 g(Force)  = 0.116E-09   g(Stress)= 0.000E+00 ortho     = 0.223E-10
 gamma     =   0.11007
 trial     =   0.30041
 opt step  =   0.91190  (harmonic =   0.91190) maximal distance =0.00000064
 next E    =  -206.620318   (d E  =  -0.00000)

 reached required accuracy - stopping structural energy minimisation