 vasp.6.4.3 19Mar24 (build Apr 09 2025 20:43:19) complex

 executed on             LinuxIFC date 2025.04.13  12:27:08

 INCAR:
   PREC = Accurate
   IBRION = 2
   NSW = 100
   NELMIN = 5
   ISIF = 2
   ENCUT = 520
   EDIFF = 1.000000e-08
   EDIFFG = -1.000000e-5
   ISMEAR = 0
   SIGMA = 0.05
   IALGO = 38
   LREAL = .FALSE.
   ADDGRID = .TRUE.
   LWAVE = .FALSE.
   LCHARG = .FALSE.
   NCORE = 9

 POTCAR:    PAW_PBE Bi_d 06Sep2000
 POTCAR:    PAW_PBE Se 06Sep2000
 POTCAR:    PAW_PBE O 08Apr2002
 POTCAR:    PAW_PBE S 06Sep2000
 POTCAR:    PAW_PBE Bi_d 06Sep2000
   VRHFIN =Bi:

   TITEL  = PAW_PBE Bi_d 06Sep2000
   POMASS =  208.980; ZVAL   =   15.000    mass and valenz
   ENMAX  =  242.839; ENMIN  =  182.129 eV

   TITEL  = PAW_PBE Se 06Sep2000
   POMASS =   78.960; ZVAL   =    6.000    mass and valenz
   ENMAX  =  211.555; ENMIN  =  158.666 eV

   TITEL  = PAW_PBE O 08Apr2002
   POMASS =   16.000; ZVAL   =    6.000    mass and valenz
   ENMAX  =  400.000; ENMIN  =  300.000 eV

   TITEL  = PAW_PBE S 06Sep2000
   POMASS =   32.066; ZVAL   =    6.000    mass and valenz
   ENMAX  =  258.689; ENMIN  =  194.016 eV

  PAW_PBE Bi_d 06Sep2000                :
  PAW_PBE Se 06Sep2000                  :
  PAW_PBE O 08Apr2002                   :
  PAW_PBE S 06Sep2000                   :

 POSCAR: generated by phonopy
  positions in direct lattice
  velocities in cartesian coordinates

 exchange-correlation table for PE
   RHO(1)=    0.500       N(1)  =     2000
   RHO(2)=  100.500       N(2)  =     4000

 ion  position               nearest neighbor table
   1  0.249  0.249  0.856-  24 2.32  28 2.32  25 2.33  30 2.33  40 3.25  18 3.26  17 3.26  19 3.27
                            13 3.54   5 3.76   7 3.76   6 3.76   8 3.76   3 3.86   2 3.86   3 3.90
   2  0.751  0.249  0.856-  24 2.32  29 2.32  31 2.33  25 2.33  40 3.25  18 3.26  17 3.26  19 3.27
                            14 3.54   5 3.76   7 3.76   6 3.76   8 3.76   4 3.86   1 3.86   4 3.90
   3  0.249  0.751  0.856-  28 2.32  26 2.32  27 2.33  30 2.33  40 3.25  17 3.26  18 3.26  19 3.27
                            15 3.54   5 3.76   6 3.76   7 3.76   8 3.76   4 3.86   1 3.86   4 3.90
   4  0.751  0.751  0.856-  26 2.32  29 2.32  27 2.33  31 2.33  40 3.25  18 3.26  17 3.26  19 3.27
                            16 3.54   5 3.76   7 3.76   6 3.76   8 3.76   3 3.86   2 3.86   2 3.90
   5  0.000  0.000  0.645-  24 2.33  26 2.33  28 2.33  29 2.33  20 3.27  21 3.27  22 3.27  23 3.27
                             9 3.56   4 3.76   2 3.76   3 3.76   1 3.76   7 3.88   6 3.88   7 3.88
   6  0.500  0.000  0.646-  28 2.33  29 2.33  25 2.33  27 2.33  20 3.28  21 3.28  22 3.28  23 3.28
                            10 3.58   3 3.76   4 3.76   1 3.76   2 3.76   5 3.88   5 3.88   8 3.88
   7  0.000  0.500  0.646-  24 2.33  26 2.33  30 2.33  31 2.33  20 3.28  21 3.28  22 3.28  23 3.28
                            11 3.58   2 3.76   4 3.76   1 3.76   3 3.76   5 3.88   5 3.88   8 3.88
   8  0.500  0.500  0.647-  25 2.33  27 2.33  30 2.33  31 2.33  20 3.28  21 3.28  22 3.28  23 3.28
                            12 3.60   1 3.76   3 3.76   2 3.76   4 3.76   7 3.88   6 3.88   6 3.88
   9  0.000  0.000  0.355-  32 2.33  33 2.33  36 2.33  38 2.33  20 3.27  21 3.27  22 3.27  23 3.27
                             5 3.56  16 3.76  15 3.76  14 3.76  13 3.76  10 3.88  11 3.88  11 3.88
  10  0.500  0.000  0.354-  32 2.33  33 2.33  37 2.33  39 2.33  20 3.28  21 3.28  22 3.28  23 3.28
                             6 3.58  15 3.76  13 3.76  16 3.76  14 3.76   9 3.88   9 3.88  12 3.88
  11  0.000  0.500  0.354-  36 2.33  38 2.33  34 2.33  35 2.33  20 3.28  21 3.28  22 3.28  23 3.28
                             7 3.58  14 3.76  13 3.76  16 3.76  15 3.76   9 3.88   9 3.88  12 3.88
  12  0.500  0.500  0.353-  34 2.33  35 2.33  37 2.33  39 2.33  20 3.28  21 3.28  22 3.28  23 3.28
                             8 3.60  13 3.76  15 3.76  14 3.76  16 3.76  10 3.88  11 3.88  10 3.88
  13  0.249  0.249  0.144-  32 2.32  36 2.32  34 2.33  37 2.33  40 3.25  18 3.26  17 3.26  19 3.27
                             1 3.54   9 3.76  10 3.76  11 3.76  12 3.76  14 3.86  15 3.86  15 3.90
  14  0.751  0.249  0.144-  36 2.32  33 2.32  35 2.33  37 2.33  40 3.25  18 3.26  17 3.26  19 3.27
                             2 3.54   9 3.76  11 3.76  10 3.76  12 3.76  13 3.86  16 3.86  16 3.90
  15  0.249  0.751  0.144-  32 2.32  38 2.32  39 2.33  34 2.33  40 3.25  17 3.26  18 3.26  19 3.27
                             3 3.54   9 3.76  10 3.76  11 3.76  12 3.76  13 3.86  16 3.86  16 3.90
  16  0.751  0.751  0.144-  33 2.32  38 2.32  35 2.33  39 2.33  40 3.25  18 3.26  17 3.26  19 3.27
                             4 3.54   9 3.76  10 3.76  11 3.76  12 3.76  14 3.86  15 3.86  14 3.90
  17  0.500  0.000  0.000-   3 3.26  15 3.26   4 3.26  13 3.26   1 3.26  16 3.26   2 3.26  14 3.26

  18  0.000  0.500  0.000-   2 3.26  14 3.26   4 3.26  13 3.26   1 3.26  16 3.26  15 3.26   3 3.26

[...]

  24  0.000  0.249  0.750-   2 2.32   1 2.32   5 2.33   7 2.33
  25  0.500  0.250  0.751-   8 2.33   6 2.33   1 2.33   2 2.33
  26  0.000  0.751  0.750-   4 2.32   3 2.32   5 2.33   7 2.33
  27  0.500  0.750  0.751-   8 2.33   6 2.33   3 2.33   4 2.33
  28  0.249  0.000  0.750-   3 2.32   1 2.32   5 2.33   6 2.33
  29  0.751  0.000  0.750-   4 2.32   2 2.32   5 2.33   6 2.33
  30  0.250  0.500  0.751-   8 2.33   7 2.33   1 2.33   3 2.33
  31  0.750  0.500  0.751-   8 2.33   7 2.33   2 2.33   4 2.33
  32  0.249  0.000  0.250-  15 2.32  13 2.32   9 2.33  10 2.33
  33  0.751  0.000  0.250-  16 2.32  14 2.32   9 2.33  10 2.33
  34  0.250  0.500  0.249-  12 2.33  11 2.33  13 2.33  15 2.33
  35  0.750  0.500  0.249-  12 2.33  11 2.33  14 2.33  16 2.33
  36  0.000  0.249  0.250-  14 2.32  13 2.32   9 2.33  11 2.33
  37  0.500  0.250  0.249-  12 2.33  10 2.33  13 2.33  14 2.33
  38  0.000  0.751  0.250-  16 2.32  15 2.32   9 2.33  11 2.33
  39  0.500  0.750  0.249-  12 2.33  10 2.33  15 2.33  16 2.33
  40  0.000  0.000  0.000-   4 3.25  16 3.25   2 3.25  14 3.25  15 3.25   3 3.25  13 3.25   1 3.25

  LATTYP: Found a simple tetragonal cell.
 ALAT       =     7.7617574582
 C/A-ratio  =     1.5781187256

  Lattice vectors:

 A1 = (   7.7617574582,   0.0000000000,   0.0000000000)
 A2 = (   0.0000000000,   7.7617574582,   0.0000000000)
 A3 = (   0.0000000000,   0.0000000000,  12.2489747883)

Analysis of symmetry for initial positions (statically):
 Subroutine PRICEL returns:
 Original cell was already a primitive cell.

 Routine SETGRP: Setting up the symmetry group for a
 simple tetragonal supercell.

 Subroutine GETGRP returns: Found 16 space group operations
 (whereof 16 operations were pure point group operations)
 out of a pool of 16 trial point group operations.

The static configuration has the point symmetry D_4h.

Analysis of symmetry for dynamics (positions and initial velocities):
 Subroutine PRICEL returns:
 Original cell was already a primitive cell.

 Routine SETGRP: Setting up the symmetry group for a
 simple tetragonal supercell.

 Subroutine GETGRP returns: Found 16 space group operations
 (whereof 16 operations were pure point group operations)
 out of a pool of 16 trial point group operations.

The dynamic configuration has the point symmetry D_4h.

 Subroutine INISYM returns: Found 16 space group operations
 (whereof 16 operations are pure point group operations),
 and found     1 'primitive' translations

                                     Primitive cell

  volume of cell :     737.9380

  direct lattice vectors                    reciprocal lattice vectors
     7.761757458  0.000000000  0.000000000     0.128836801  0.000000000  0.000000000
     0.000000000  7.761757458  0.000000000     0.000000000  0.128836801  0.000000000
     0.000000000  0.000000000 12.248974788     0.000000000  0.000000000  0.081639486

  length of vectors
     7.761757458  7.761757458 12.248974788     0.128836801  0.128836801  0.081639486

  position of ions in fractional coordinates (direct lattice)
     0.248842066  0.248842066  0.855701556
     0.751157934  0.248842066  0.855701556
     0.248842066  0.751157934  0.855701556
     0.751157934  0.751157934  0.855701556
     0.000000000  0.000000000  0.645260801
     0.500000000  0.000000000  0.646086571
     0.000000000  0.500000000  0.646086571
     0.500000000  0.500000000  0.647005621
     0.000000000  0.000000000  0.354739199
     0.500000000  0.000000000  0.353913429
     0.000000000  0.500000000  0.353913429
     0.500000000  0.500000000  0.352994379
     0.248842066  0.248842066  0.144298444
     0.751157934  0.248842066  0.144298444
     0.248842066  0.751157934  0.144298444
     0.751157934  0.751157934  0.144298444
     0.500000000  0.000000000  0.000000000
     0.000000000  0.500000000  0.000000000
     0.500000000  0.500000000  0.000000000
     0.250277744  0.250277744  0.500000000
     0.749722256  0.250277744  0.500000000
     0.250277744  0.749722256  0.500000000
     0.749722256  0.749722256  0.500000000
     0.000000000  0.249480754  0.750397614
     0.500000000  0.249615170  0.751459145
     0.000000000  0.750519246  0.750397614
     0.500000000  0.750384830  0.751459145
     0.249480754  0.000000000  0.750397614
     0.750519246  0.000000000  0.750397614
     0.249615170  0.500000000  0.751459145
     0.750384830  0.500000000  0.751459145
     0.249480754  0.000000000  0.249602386
     0.750519246  0.000000000  0.249602386
     0.249615170  0.500000000  0.248540855
     0.750384830  0.500000000  0.248540855
     0.000000000  0.249480754  0.249602386
     0.500000000  0.249615170  0.248540855
     0.000000000  0.750519246  0.249602386
     0.500000000  0.750384830  0.248540855
     0.000000000  0.000000000  0.000000000

  ion indices of the primitive-cell ions
   primitive index   ion index
                 1           1
                 2           2
                 3           3
                 4           4
                 5           5
                 6           6
                 7           7
                 8           8
                 9           9
                10          10
                11          11
                12          12
                13          13
                14          14
                15          15
                16          16
                17          17
                18          18
                19          19
                20          20
                21          21
                22          22
                23          23
                24          24
                25          25
                26          26
                27          27
                28          28
                29          29
                30          30
                31          31
                32          32
                33          33
                34          34
                35          35
                36          36
                37          37
                38          38
                39          39
                40          40

 KPOINTS: K-Spacing Value to Generate K-Mesh: 0.03

Automatic generation of k-mesh.
 Grid dimensions read from file:
 generate k-points for:    4    4    3

 Generating k-lattice:

[...]

--------------------------------------- Ionic step       11  -------------------------------------------

[...]

 eigenvalue-minimisations  :  3000
 total energy-change (2. order) :-0.1200533E-09  (-0.3017679E-12)
 number of electron     384.0000007 magnetization
 augmentation part       95.0307807 magnetization

[...]

 eigenvalue-minimisations  :  3000
 total energy-change (2. order) : 0.1364242E-09  ( 0.2353673E-13)
 number of electron     384.0000007 magnetization
 augmentation part       95.0307807 magnetization

 Broyden mixing:
  rms(total) = 0.47400E-07    rms(broyden)= 0.47389E-07
  rms(prec ) = 0.56184E-07
  weight for this iteration     100.00

 eigenvalues of (default mixing * dielectric matrix)
  average eigenvalue GAMMA=   0.9386
  1.2088  1.2088  0.3982

[...]

--------------------------------------- Iteration     11(   5)  ---------------------------------------

 eigenvalue-minimisations  :  3000
 total energy-change (2. order) : 0.7457857E-10  (-0.2794293E-12)
 number of electron     384.0000007 magnetization
 augmentation part       95.0307807 magnetization

 Free energy of the ion-electron system (eV)
  alpha Z        PSCENC =      1368.89029853
  Ewald energy   TEWEN  =    -29869.80679444
  -Hartree energ DENC   =    -11302.01405351
  -exchange      EXHF   =         0.00000000
  -V(xc)+E(xc)   XCENC  =      1254.43151628
  PAW double counting   =     36483.60647179   -35882.10375695
  entropy T*S    EENTRO =        -0.00000000
  eigenvalues    EBANDS =     -2603.32040551
  atomic energy  EATOM  =     40341.65184589
  Solvation  Ediel_sol  =         0.00000000
  free energy    TOTEN  =      -208.66487791 eV

  energy without entropy =     -208.66487791  energy(sigma->0) =     -208.66487791

 average (electrostatic) potential at core
  the test charge radii are     1.0856  1.0808  0.7215  0.9698
  (the norm of the test charge is              1.0000)
       1-104.3458       2-104.3458       3-104.3458       4-104.3458       5-104.3386
       6-104.3423       7-104.3423       8-104.3338       9-104.3386      10-104.3423
      11-104.3423      12-104.3338      13-104.3458      14-104.3458      15-104.3458
      16-104.3458      17 -50.3053      18 -50.3053      19 -50.2692      20 -50.2898
      21 -50.2898      22 -50.2898      23 -50.2898      24 -68.5436      25 -68.5264
      26 -68.5436      27 -68.5264      28 -68.5436      29 -68.5436      30 -68.5264
      31 -68.5264      32 -68.5436      33 -68.5436      34 -68.5264      35 -68.5264
      36 -68.5436      37 -68.5264      38 -68.5436      39 -68.5264      40 -83.4152

 E-fermi :   6.8589     XC(G=0): -10.6523     alpha+bet :-12.4082

 val. band max:        6.6174587966   @ k =   0.0000   0.0000   0.3333
 cond. band min:       7.1380871371   @ k =   0.0000   0.0000   0.0000
 fundamental gap:      0.5206283405
 Fermi energy:         6.8589421306

[...]

 k-point    12 :       0.5000    0.5000    0.3333
  band No.  band energies     occupation
      1     -16.3794      2.00000
      2     -16.3759      2.00000
      3     -16.3759      2.00000
      4     -16.3746      2.00000
      5     -16.3727      2.00000
      6     -16.3712      2.00000
      7     -16.3712      2.00000
      8     -16.3678      2.00000
      9     -16.2850      2.00000
     10     -16.2811      2.00000
     11     -16.2811      2.00000
     12     -16.2811      2.00000
     13     -16.2762      2.00000
     14     -16.2723      2.00000
     15     -16.2719      2.00000
     16     -16.2719      2.00000
     17     -16.2199      2.00000
     18     -16.2192      2.00000
     19     -16.2192      2.00000
     20     -16.2179      2.00000
     21     -16.2077      2.00000
     22     -16.2077      2.00000
     23     -16.2077      2.00000
     24     -16.2003      2.00000
     25     -16.1874      2.00000
     26     -16.1858      2.00000
     27     -16.1858      2.00000
     28     -16.1837      2.00000
     29     -16.1828      2.00000
     30     -16.1824      2.00000
     31     -16.1817      2.00000
     32     -16.1814      2.00000
     33     -16.1814      2.00000
     34     -16.1810      2.00000
     35     -16.1810      2.00000
     36     -16.1803      2.00000
     37     -16.1791      2.00000
     38     -16.1791      2.00000
     39     -16.1786      2.00000
     40     -16.1781      2.00000
     41     -16.1668      2.00000
     42     -16.1668      2.00000
     43     -16.1666      2.00000
     44     -16.1658      2.00000
     45     -16.1658      2.00000
     46     -16.1653      2.00000
     47     -16.1612      2.00000
     48     -16.1598      2.00000
     49     -16.1591      2.00000
     50     -16.1591      2.00000
     51     -16.1576      2.00000
     52     -16.1576      2.00000
     53     -16.1573      2.00000
     54     -16.1565      2.00000
     55     -16.1560      2.00000
     56     -16.1548      2.00000
     57     -16.1458      2.00000
     58     -16.1458      2.00000
     59     -16.1448      2.00000
     60     -16.1443      2.00000
[...]
    218      11.1752      0.00000
    219      11.1992      0.00000
    220      11.2049      0.00000
    221      11.2663      0.00000
    222      11.2663      0.00000
    223      11.2691      0.00000
    224      11.2764      0.00000
    225      11.8090      0.00000
    226      11.8406      0.00000
    227      11.8406      0.00000
    228      11.8826      0.00000
    229      11.9016      0.00000
    230      11.9016      0.00000
    231      11.9507      0.00000
    232      11.9533      0.00000

 soft charge-density along one line, spin component           1
         0         1         2         3         4         5         6         7         8         9
 total charge-density along one line

------------------------ aborting loop because EDIFF is reached ----------------------------------------

  FORCE on cell =-STRESS in cart. coord.  units (eV):
  Direction    XX          YY          ZZ          XY          YZ          ZX
  Alpha Z  1368.89030  1368.89030  1368.89030
  Ewald   -8357.99701 -8357.99701-13153.92474    -0.00000    -0.00000     0.00000
  Hartree  5192.47207  5192.47207   917.06991    -0.00000    -0.00000    -0.00000
  E(xc)   -1828.36329 -1828.36329 -1829.82648     0.00000     0.00000    -0.00000
  Local   -5081.57991 -5081.57991  4000.97887    -0.00000     0.00000    -0.00000
  n-local  1582.39243  1589.34027  1593.99261     0.56646    -0.05622     0.12304
  augment  2176.47960  2176.47960  2160.85775    -0.00000     0.00000     0.00000
  Kinetic  4952.84284  4961.19122  4951.71669    -3.71648     0.46207    -0.56611
  Fock        0.00000     0.00000     0.00000     0.00000     0.00000     0.00000
  Total      12.78514    12.78514     9.75492     0.00000     0.00000    -0.00000
  in kB      27.75851    27.75851    21.17943     0.00000     0.00000    -0.00000

 VOLUME and BASIS-vectors are now :
  energy-cutoff  :      520.00
  volume of cell :      737.94
      direct lattice vectors                 reciprocal lattice vectors
     7.761757458  0.000000000  0.000000000     0.128836801  0.000000000  0.000000000
     0.000000000  7.761757458  0.000000000     0.000000000  0.128836801  0.000000000
     0.000000000  0.000000000 12.248974788     0.000000000  0.000000000  0.081639486

  length of vectors
     7.761757458  7.761757458 12.248974788     0.128836801  0.128836801  0.081639486

 FORCES acting on ions
    electron-ion (+dipol)            ewald-force                    non-local-force                 convergence-correction
   -.648E+01 -.648E+01 -.432E+03   0.636E+01 0.636E+01 0.443E+03   0.118E+00 0.118E+00 -.111E+02   -.167E-06 -.167E-06 0.261E-06
   0.648E+01 -.648E+01 -.432E+03   -.636E+01 0.636E+01 0.443E+03   -.118E+00 0.118E+00 -.111E+02   0.167E-06 -.167E-06 0.261E-06
   -.648E+01 0.648E+01 -.432E+03   0.636E+01 -.636E+01 0.443E+03   0.118E+00 -.118E+00 -.111E+02   -.167E-06 0.167E-06 0.261E-06
   0.648E+01 0.648E+01 -.432E+03   -.636E+01 -.636E+01 0.443E+03   -.118E+00 -.118E+00 -.111E+02   0.167E-06 0.167E-06 0.261E-06
   -.580E-12 -.216E-11 0.464E+03   0.264E-11 0.270E-11 -.475E+03   0.866E-18 -.219E-18 0.110E+02   -.743E-11 -.483E-11 -.737E-06
   0.162E-12 0.585E-12 0.462E+03   0.296E-11 0.284E-11 -.473E+03   0.230E-18 0.100E-18 0.109E+02   0.716E-11 -.200E-11 0.106E-06
   -.618E-12 -.386E-11 0.462E+03   0.281E-11 0.293E-11 -.473E+03   0.293E-17 0.135E-18 0.109E+02   -.224E-11 0.397E-11 0.106E-06
   0.114E-12 0.773E-12 0.462E+03   0.298E-11 0.299E-11 -.473E+03   0.296E-17 0.964E-18 0.110E+02   0.219E-11 0.312E-11 0.883E-06
   -.598E-12 0.483E-11 -.464E+03   0.270E-11 0.279E-11 0.475E+03   0.960E-18 -.109E-17 -.110E+02   -.881E-11 -.320E-12 0.737E-06
   0.178E-12 -.164E-11 -.462E+03   0.307E-11 0.271E-11 0.473E+03   0.378E-18 -.640E-19 -.109E+02   0.871E-11 -.165E-11 -.106E-06
   -.564E-12 0.376E-11 -.462E+03   0.267E-11 0.298E-11 0.473E+03   -.124E-17 0.162E-18 -.109E+02   0.148E-11 0.175E-11 -.106E-06
   0.196E-12 0.285E-11 -.462E+03   0.293E-11 0.302E-11 0.473E+03   -.148E-17 0.132E-17 -.110E+02   -.132E-11 0.117E-11 -.883E-06
   -.648E+01 -.648E+01 0.432E+03   0.636E+01 0.636E+01 -.443E+03   0.118E+00 0.118E+00 0.111E+02   -.167E-06 -.167E-06 -.261E-06
   0.648E+01 -.648E+01 0.432E+03   -.636E+01 0.636E+01 -.443E+03   -.118E+00 0.118E+00 0.111E+02   0.167E-06 -.167E-06 -.261E-06
   -.648E+01 0.648E+01 0.432E+03   0.636E+01 -.636E+01 -.443E+03   0.118E+00 -.118E+00 0.111E+02   -.167E-06 0.167E-06 -.261E-06
   0.648E+01 0.648E+01 0.432E+03   -.636E+01 -.636E+01 -.443E+03   -.118E+00 -.118E+00 0.111E+02   0.167E-06 0.167E-06 -.261E-06
   -.126E-11 -.116E-11 0.152E-11   0.639E-11 0.625E-11 0.355E-14   0.136E-28 0.309E-27 0.637E-27   -.210E-11 0.596E-12 -.121E-11
   -.117E-11 0.444E-12 0.586E-12   0.617E-11 0.642E-11 0.213E-13   -.391E-27 0.303E-28 -.223E-27   0.262E-11 -.211E-12 -.380E-12
   -.123E-11 -.179E-11 0.221E-12   0.622E-11 0.627E-11 0.568E-13   0.131E-27 0.248E-27 -.832E-27   -.261E-11 -.117E-12 -.673E-12
   -.206E+01 -.206E+01 -.700E-07   0.207E+01 0.207E+01 -.632E-13   -.103E-01 -.103E-01 -.979E-20   -.224E-06 -.224E-06 0.104E-11
   0.206E+01 -.206E+01 0.247E-11   -.207E+01 0.207E+01 -.383E-13   0.103E-01 -.103E-01 0.801E-20   0.224E-06 -.224E-06 -.299E-13
   -.206E+01 0.206E+01 -.567E-12   0.207E+01 -.207E+01 -.631E-13   -.103E-01 0.103E-01 -.562E-20   -.224E-06 0.224E-06 0.132E-11
   0.206E+01 0.206E+01 0.700E-07   -.207E+01 -.207E+01 -.102E-12   0.103E-01 0.103E-01 0.989E-20   0.224E-06 0.224E-06 0.231E-11
   -.286E-11 -.249E+01 0.881E+01   0.144E-10 0.250E+01 -.896E+01   0.239E-18 -.730E-02 0.146E+00   -.170E-12 -.220E-06 -.403E-07
   -.270E-11 -.189E+01 0.380E+01   0.146E-10 0.189E+01 -.366E+01   0.308E-18 0.477E-02 -.140E+00   0.233E-13 -.232E-06 0.548E-06
   -.285E-11 0.249E+01 0.881E+01   0.145E-10 -.250E+01 -.896E+01   0.226E-18 0.730E-02 0.146E+00   -.242E-11 0.220E-06 -.403E-07
   -.273E-11 0.189E+01 0.380E+01   0.146E-10 -.189E+01 -.366E+01   0.461E-18 -.477E-02 -.140E+00   0.225E-11 0.232E-06 0.548E-06
   -.249E+01 -.351E-11 0.881E+01   0.250E+01 0.143E-10 -.896E+01   -.730E-02 0.228E-18 0.146E+00   -.220E-06 0.511E-12 -.403E-07
   0.249E+01 -.469E-11 0.881E+01   -.250E+01 0.142E-10 -.896E+01   0.730E-02 0.227E-19 0.146E+00   0.220E-06 -.341E-11 -.403E-07
   -.189E+01 -.154E-11 0.380E+01   0.189E+01 0.146E-10 -.366E+01   0.477E-02 -.357E-18 -.140E+00   -.232E-06 0.129E-12 0.548E-06
   0.189E+01 -.291E-11 0.380E+01   -.189E+01 0.146E-10 -.366E+01   -.477E-02 -.100E-18 -.140E+00   0.232E-06 0.187E-11 0.548E-06
   -.249E+01 0.329E-11 -.881E+01   0.250E+01 0.143E-10 0.896E+01   -.730E-02 0.863E-19 -.146E+00   -.220E-06 0.130E-12 0.403E-07
   0.249E+01 -.219E-11 -.881E+01   -.250E+01 0.143E-10 0.896E+01   0.730E-02 0.239E-18 -.146E+00   0.220E-06 0.215E-11 0.403E-07
   -.189E+01 0.759E-14 -.380E+01   0.189E+01 0.146E-10 0.366E+01   0.477E-02 -.452E-18 0.140E+00   -.232E-06 -.735E-12 -.548E-06
   0.189E+01 0.438E-11 -.380E+01   -.189E+01 0.146E-10 0.366E+01   -.477E-02 -.146E-18 0.140E+00   0.232E-06 0.235E-11 -.548E-06
   -.296E-11 -.249E+01 -.881E+01   0.143E-10 0.250E+01 0.896E+01   -.335E-18 -.730E-02 -.146E+00   -.537E-12 -.220E-06 0.403E-07
   -.265E-11 -.189E+01 -.380E+01   0.145E-10 0.189E+01 0.366E+01   -.196E-18 0.477E-02 0.140E+00   0.565E-12 -.232E-06 -.548E-06
   -.250E-11 0.249E+01 -.881E+01   0.145E-10 -.250E+01 0.896E+01   -.278E-18 0.730E-02 -.146E+00   -.112E-11 0.220E-06 0.403E-07
   -.267E-11 0.189E+01 -.380E+01   0.145E-10 -.189E+01 0.366E+01   -.521E-18 -.477E-02 0.140E+00   0.111E-11 0.232E-06 -.548E-06
   -.124E-11 -.124E-11 0.171E-13   0.622E-11 0.625E-11 -.284E-13   0.162E-26 0.164E-26 -.554E-28   0.216E-11 0.645E-12 -.191E-11
   -.197E-09 -.200E-09 -.103E-09   0.327E-12 -.117E-12 -.142E-12   -.463E-18 -.147E-16 0.180E-14   -.220E-12 -.541E-11 -.400E-11

 POSITION                                       TOTAL-FORCE (eV/Angst)
      1.93145      1.93145     10.48147         0.000004      0.000004     -0.000005
      5.83031      1.93145     10.48147        -0.000004      0.000004     -0.000005
      1.93145      5.83031     10.48147         0.000004     -0.000004     -0.000005
      5.83031      5.83031     10.48147        -0.000004     -0.000004     -0.000005
      0.00000      7.76176      7.90378         0.000000      0.000000      0.000009
      3.88088      0.00000      7.91390         0.000000      0.000000      0.000004
      0.00000      3.88088      7.91390         0.000000     -0.000000      0.000004
      3.88088      3.88088      7.92515         0.000000      0.000000     -0.000002
      0.00000      7.76176      4.34519         0.000000      0.000000     -0.000009
      3.88088      0.00000      4.33508         0.000000      0.000000     -0.000004
      0.00000      3.88088      4.33508         0.000000     -0.000000     -0.000004
      3.88088      3.88088      4.32382         0.000000     -0.000000      0.000002
      1.93145      1.93145      1.76751         0.000004      0.000004      0.000005
      5.83031      1.93145      1.76751        -0.000004      0.000004      0.000005
      1.93145      5.83031      1.76751         0.000004     -0.000004      0.000005
      5.83031      5.83031      1.76751        -0.000004     -0.000004      0.000005
      3.88088      7.76176      0.00000         0.000000      0.000000      0.000000
      7.76176      3.88088      0.00000         0.000000      0.000000      0.000000
      3.88088      3.88088      0.00000         0.000000     -0.000000      0.000000
      1.94260      1.94260      6.12449         0.000001      0.000001      0.000000
      5.81916      1.94260      6.12449        -0.000001      0.000001      0.000000
      1.94260      5.81916      6.12449         0.000001     -0.000001      0.000000
      5.81916      5.81916      6.12449        -0.000001     -0.000001      0.000000
      0.00000      1.93641      9.19160         0.000000      0.000002      0.000001
      3.88088      1.93745      9.20460         0.000000      0.000002     -0.000005
      0.00000      5.82535      9.19160         0.000000     -0.000002      0.000001
      3.88088      5.82430      9.20460         0.000000     -0.000002     -0.000005
      1.93641      0.00000      9.19160         0.000002      0.000000      0.000001
      5.82535      0.00000      9.19160        -0.000002      0.000000      0.000001
      1.93745      3.88088      9.20460         0.000002     -0.000000     -0.000005
      5.82430      3.88088      9.20460        -0.000002      0.000000     -0.000005
      1.93641      7.76176      3.05737         0.000002     -0.000000     -0.000001
      5.82535      0.00000      3.05737        -0.000002     -0.000000     -0.000001
      1.93745      3.88088      3.04437         0.000002      0.000000      0.000005
      5.82430      3.88088      3.04437        -0.000002     -0.000000      0.000005
      0.00000      1.93641      3.05737         0.000000      0.000002     -0.000001
      3.88088      1.93745      3.04437         0.000000      0.000002      0.000005
      7.76176      5.82535      3.05737         0.000000     -0.000002     -0.000001
      3.88088      5.82430      3.04437         0.000000     -0.000002      0.000005
      0.00000      0.00000      0.00000         0.000000     -0.000000      0.000000
    total drift:                               -0.000000     -0.000000     -0.000000

  FREE ENERGIE OF THE ION-ELECTRON SYSTEM (eV)
  free  energy   TOTEN  =      -208.66487791 eV

  energy  without entropy=     -208.66487791  energy(sigma->0) =     -208.66487791

 d Force = 0.5235247E-11[ 0.378E-11, 0.669E-11]  d Energy = 0.4110916E-09-0.406E-09
 d Force =-0.6690795E-04[-0.669E-04,-0.669E-04]  d Ewald  =-0.6690799E-04 0.327E-10

 reached required accuracy - stopping structural energy minimisation