 vasp.6.4.3 19Mar24 (build Apr 09 2025 20:43:19) complex

 executed on             LinuxIFC date 2025.04.12  22:57:04

 INCAR:
   PREC = Accurate
   IBRION = 2
   NSW = 100
   NELMIN = 5
   ISIF = 2
   ENCUT = 520
   EDIFF = 1.000000e-08
   EDIFFG = -1.000000e-5
   ISMEAR = 0
   SIGMA = 0.05
   IALGO = 38
   LREAL = .FALSE.
   ADDGRID = .TRUE.
   LWAVE = .FALSE.
   LCHARG = .FALSE.
   NCORE = 9

 POTCAR:    PAW_PBE Bi_d 06Sep2000
 POTCAR:    PAW_PBE Se 06Sep2000
 POTCAR:    PAW_PBE O 08Apr2002
 POTCAR:    PAW_PBE S 06Sep2000
 POTCAR:    PAW_PBE Bi_d 06Sep2000
   VRHFIN =Bi:

   TITEL  = PAW_PBE Bi_d 06Sep2000
   POMASS =  208.980; ZVAL   =   15.000    mass and valenz
   ENMAX  =  242.839; ENMIN  =  182.129 eV

   TITEL  = PAW_PBE Se 06Sep2000
   POMASS =   78.960; ZVAL   =    6.000    mass and valenz
   ENMAX  =  211.555; ENMIN  =  158.666 eV

   TITEL  = PAW_PBE O 08Apr2002
   POMASS =   16.000; ZVAL   =    6.000    mass and valenz
   ENMAX  =  400.000; ENMIN  =  300.000 eV

   TITEL  = PAW_PBE S 06Sep2000
   POMASS =   32.066; ZVAL   =    6.000    mass and valenz
   ENMAX  =  258.689; ENMIN  =  194.016 eV

  PAW_PBE Bi_d 06Sep2000                :
  PAW_PBE Se 06Sep2000                  :
  PAW_PBE O 08Apr2002                   :
  PAW_PBE S 06Sep2000                   :

 POSCAR: generated by phonopy
  positions in direct lattice
  velocities in cartesian coordinates

 exchange-correlation table for PE
   RHO(1)=    0.500       N(1)  =     2000
   RHO(2)=  100.500       N(2)  =     4000

 ion  position               nearest neighbor table
   1  0.249  0.249  0.858-  24 2.29  28 2.29  25 2.30  30 2.30  40 3.17  18 3.18  17 3.18  19 3.19
                            13 3.40   5 3.72   7 3.73   6 3.73   8 3.73   3 3.78   2 3.78   3 3.82
   2  0.751  0.249  0.858-  24 2.29  29 2.29  25 2.30  31 2.30  40 3.17  18 3.18  17 3.18  19 3.19
                            14 3.40   5 3.72   7 3.73   6 3.73   8 3.73   4 3.78   1 3.78   4 3.82
   3  0.249  0.751  0.858-  26 2.29  28 2.29  27 2.30  30 2.30  40 3.17  18 3.18  17 3.18  19 3.19
                            15 3.40   5 3.72   7 3.73   6 3.73   8 3.73   4 3.78   1 3.78   4 3.82
   4  0.751  0.751  0.858-  26 2.29  29 2.29  27 2.30  31 2.30  40 3.17  18 3.18  17 3.18  19 3.19
                            16 3.40   5 3.72   7 3.73   6 3.73   8 3.73   3 3.78   2 3.78   2 3.82
   5  0.000  0.000  0.642-  24 2.30  26 2.30  28 2.30  29 2.30  20 3.19  21 3.19  22 3.19  23 3.19
                             9 3.42   2 3.72   3 3.72   4 3.72   1 3.72   7 3.80   6 3.80   7 3.80
   6  0.500  0.000  0.643-  28 2.30  29 2.30  25 2.30  27 2.30  20 3.19  21 3.19  22 3.19  23 3.19
                            10 3.44   2 3.73   3 3.73   4 3.73   1 3.73   5 3.80   5 3.80   8 3.80
   7  0.000  0.500  0.643-  24 2.30  26 2.30  30 2.30  31 2.30  20 3.19  21 3.19  22 3.19  23 3.19
                            11 3.44   2 3.73   3 3.73   4 3.73   1 3.73   5 3.80   5 3.80   8 3.80
   8  0.500  0.500  0.644-  25 2.30  27 2.30  30 2.30  31 2.30  20 3.19  21 3.19  22 3.19  23 3.19
                            12 3.46   2 3.73   3 3.73   4 3.73   1 3.73   7 3.80   6 3.80   6 3.80
   9  0.000  0.000  0.358-  32 2.30  33 2.30  36 2.30  38 2.30  20 3.19  21 3.19  22 3.19  23 3.19
                             5 3.42  13 3.72  14 3.72  15 3.72  16 3.72  10 3.80  11 3.80  11 3.80
  10  0.500  0.000  0.357-  32 2.30  33 2.30  37 2.30  39 2.30  20 3.19  21 3.19  22 3.19  23 3.19
                             6 3.44  13 3.73  14 3.73  15 3.73  16 3.73   9 3.80   9 3.80  12 3.80
  11  0.000  0.500  0.357-  36 2.30  38 2.30  34 2.30  35 2.30  20 3.19  21 3.19  22 3.19  23 3.19
                             7 3.44  13 3.73  14 3.73  15 3.73  16 3.73   9 3.80   9 3.80  12 3.80
  12  0.500  0.500  0.356-  34 2.30  35 2.30  37 2.30  39 2.30  20 3.19  21 3.19  22 3.19  23 3.19
                             8 3.46  13 3.73  14 3.73  15 3.73  16 3.73  10 3.80  11 3.80  10 3.80
  13  0.249  0.249  0.142-  32 2.29  36 2.29  34 2.30  37 2.30  40 3.17  18 3.18  17 3.18  19 3.19
                             1 3.40   9 3.72  10 3.73  11 3.73  12 3.73  14 3.78  15 3.78  15 3.82
  14  0.751  0.249  0.142-  33 2.29  36 2.29  35 2.30  37 2.30  40 3.17  18 3.18  17 3.18  19 3.19
                             2 3.40   9 3.72  10 3.73  11 3.73  12 3.73  13 3.78  16 3.78  16 3.82
  15  0.249  0.751  0.142-  32 2.29  38 2.29  34 2.30  39 2.30  40 3.17  18 3.18  17 3.18  19 3.19
                             3 3.40   9 3.72  10 3.73  11 3.73  12 3.73  13 3.78  16 3.78  16 3.82
  16  0.751  0.751  0.142-  33 2.29  38 2.29  35 2.30  39 2.30  40 3.17  18 3.18  17 3.18  19 3.19
                             4 3.40   9 3.72  10 3.73  11 3.73  12 3.73  14 3.78  15 3.78  14 3.82
  17  0.500  0.000  0.000-   1 3.18   2 3.18   3 3.18   4 3.18  13 3.18  14 3.18  15 3.18  16 3.18

  18  0.000  0.500  0.000-   1 3.18   2 3.18   3 3.18   4 3.18  13 3.18  14 3.18  15 3.18  16 3.18

[...]

  24  0.000  0.249  0.750-   1 2.29   2 2.29   5 2.30   7 2.30
  25  0.500  0.250  0.752-   8 2.30   6 2.30   1 2.30   2 2.30
  26  0.000  0.751  0.750-   3 2.29   4 2.29   5 2.30   7 2.30
  27  0.500  0.750  0.752-   8 2.30   6 2.30   3 2.30   4 2.30
  28  0.249  0.000  0.750-   1 2.29   3 2.29   5 2.30   6 2.30
  29  0.751  0.000  0.750-   2 2.29   4 2.29   5 2.30   6 2.30
  30  0.250  0.500  0.752-   8 2.30   7 2.30   1 2.30   3 2.30
  31  0.750  0.500  0.752-   8 2.30   7 2.30   2 2.30   4 2.30
  32  0.249  0.000  0.250-  13 2.29  15 2.29   9 2.30  10 2.30
  33  0.751  0.000  0.250-  14 2.29  16 2.29   9 2.30  10 2.30
  34  0.250  0.500  0.248-  12 2.30  11 2.30  13 2.30  15 2.30
  35  0.750  0.500  0.248-  12 2.30  11 2.30  14 2.30  16 2.30
  36  0.000  0.249  0.250-  13 2.29  14 2.29   9 2.30  11 2.30
  37  0.500  0.250  0.248-  12 2.30  10 2.30  13 2.30  14 2.30
  38  0.000  0.751  0.250-  15 2.29  16 2.29   9 2.30  11 2.30
  39  0.500  0.750  0.248-  12 2.30  10 2.30  15 2.30  16 2.30
  40  0.000  0.000  0.000-   1 3.17   2 3.17   3 3.17   4 3.17  13 3.17  14 3.17  15 3.17  16 3.17

  LATTYP: Found a simple tetragonal cell.
 ALAT       =     7.6049542772
 C/A-ratio  =     1.5781187256

  Lattice vectors:

 A1 = (   7.6049542772,   0.0000000000,   0.0000000000)
 A2 = (   0.0000000000,   7.6049542772,   0.0000000000)
 A3 = (   0.0000000000,   0.0000000000,  12.0015207522)

Analysis of symmetry for initial positions (statically):
 Subroutine PRICEL returns:
 Original cell was already a primitive cell.

 Routine SETGRP: Setting up the symmetry group for a
 simple tetragonal supercell.

 Subroutine GETGRP returns: Found 16 space group operations
 (whereof 16 operations were pure point group operations)
 out of a pool of 16 trial point group operations.

The static configuration has the point symmetry D_4h.

Analysis of symmetry for dynamics (positions and initial velocities):
 Subroutine PRICEL returns:
 Original cell was already a primitive cell.

 Routine SETGRP: Setting up the symmetry group for a
 simple tetragonal supercell.

 Subroutine GETGRP returns: Found 16 space group operations
 (whereof 16 operations were pure point group operations)
 out of a pool of 16 trial point group operations.

The dynamic configuration has the point symmetry D_4h.

 Subroutine INISYM returns: Found 16 space group operations
 (whereof 16 operations are pure point group operations),
 and found     1 'primitive' translations

                                     Primitive cell

  volume of cell :     694.1119

  direct lattice vectors                    reciprocal lattice vectors
     7.604954277  0.000000000  0.000000000     0.131493230  0.000000000  0.000000000
     0.000000000  7.604954277  0.000000000     0.000000000  0.131493230  0.000000000
     0.000000000  0.000000000 12.001520752     0.000000000  0.000000000  0.083322774

  length of vectors
     7.604954277  7.604954277 12.001520752     0.131493230  0.131493230  0.083322774

  position of ions in fractional coordinates (direct lattice)
     0.248686824  0.248686824  0.858408104
     0.751313176  0.248686824  0.858408104
     0.248686824  0.751313176  0.858408104
     0.751313176  0.751313176  0.858408104
     0.000000000  0.000000000  0.642404599
     0.500000000  0.000000000  0.643320500
     0.000000000  0.500000000  0.643320500
     0.500000000  0.500000000  0.644315449
     0.000000000  0.000000000  0.357595401
     0.500000000  0.000000000  0.356679500
     0.000000000  0.500000000  0.356679500
     0.500000000  0.500000000  0.355684551
     0.248686824  0.248686824  0.141591896
     0.751313176  0.248686824  0.141591896
     0.248686824  0.751313176  0.141591896
     0.751313176  0.751313176  0.141591896
     0.500000000  0.000000000  0.000000000
     0.000000000  0.500000000  0.000000000
     0.500000000  0.500000000  0.000000000
     0.250473954  0.250473954  0.500000000
     0.749526046  0.250473954  0.500000000
     0.250473954  0.749526046  0.500000000
     0.749526046  0.749526046  0.500000000
     0.000000000  0.249388054  0.750230305
     0.500000000  0.249520120  0.751568202
     0.000000000  0.750611946  0.750230305
     0.500000000  0.750479880  0.751568202
     0.249388054  0.000000000  0.750230305
     0.750611946  0.000000000  0.750230305
     0.249520120  0.500000000  0.751568202
     0.750479880  0.500000000  0.751568202
     0.249388054  0.000000000  0.249769695
     0.750611946  0.000000000  0.249769695
     0.249520120  0.500000000  0.248431798
     0.750479880  0.500000000  0.248431798
     0.000000000  0.249388054  0.249769695
     0.500000000  0.249520120  0.248431798
     0.000000000  0.750611946  0.249769695
     0.500000000  0.750479880  0.248431798
     0.000000000  0.000000000  0.000000000

  ion indices of the primitive-cell ions
   primitive index   ion index
                 1           1
                 2           2
                 3           3
                 4           4
                 5           5
                 6           6
                 7           7
                 8           8
                 9           9
                10          10
                11          11
                12          12
                13          13
                14          14
                15          15
                16          16
                17          17
                18          18
                19          19
                20          20
                21          21
                22          22
                23          23
                24          24
                25          25
                26          26
                27          27
                28          28
                29          29
                30          30
                31          31
                32          32
                33          33
                34          34
                35          35
                36          36
                37          37
                38          38
                39          39
                40          40

 KPOINTS: K-Spacing Value to Generate K-Mesh: 0.03

Automatic generation of k-mesh.
 Grid dimensions read from file:
 generate k-points for:    4    4    3

 Generating k-lattice:

[...]
 number of electron     384.0000003 magnetization
 augmentation part       95.0405523 magnetization

 Broyden mixing:
  rms(total) = 0.62226E-06    rms(broyden)= 0.62216E-06
  rms(prec ) = 0.74083E-06
  weight for this iteration     100.00

 eigenvalues of (default mixing * dielectric matrix)
  average eigenvalue GAMMA=   1.0358
  1.3242  1.3242  0.4591

[...]

--------------------------------------- Iteration     28(   5)  ---------------------------------------

 eigenvalue-minimisations  :  2928
 total energy-change (2. order) :-0.1855369E-09  (-0.3708817E-11)
 number of electron     384.0000003 magnetization
 augmentation part       95.0405523 magnetization

 Free energy of the ion-electron system (eV)
  alpha Z        PSCENC =      1455.32177217
  Ewald energy   TEWEN  =    -30728.59693684
  -Hartree energ DENC   =    -10798.01105010
  -exchange      EXHF   =         0.00000000
  -V(xc)+E(xc)   XCENC  =      1260.80242865
  PAW double counting   =     37019.44046744   -36423.60814369
  entropy T*S    EENTRO =        -0.00000000
  eigenvalues    EBANDS =     -2334.09944997
  atomic energy  EATOM  =     40341.65184589
  Solvation  Ediel_sol  =         0.00000000
  free energy    TOTEN  =      -207.09906644 eV

  energy without entropy =     -207.09906644  energy(sigma->0) =     -207.09906644

 average (electrostatic) potential at core
  the test charge radii are     1.0856  1.0808  0.7215  0.9698
  (the norm of the test charge is              1.0000)
       1-103.5047       2-103.5047       3-103.5047       4-103.5047       5-103.4999
       6-103.5020       7-103.5020       8-103.4923       9-103.4999      10-103.5020
      11-103.5020      12-103.4923      13-103.5047      14-103.5047      15-103.5047
      16-103.5047      17 -49.6426      18 -49.6426      19 -49.6048      20 -49.6317
      21 -49.6317      22 -49.6317      23 -49.6317      24 -67.8220      25 -67.8013
      26 -67.8220      27 -67.8013      28 -67.8220      29 -67.8220      30 -67.8013
      31 -67.8013      32 -67.8220      33 -67.8220      34 -67.8013      35 -67.8013
      36 -67.8220      37 -67.8013      38 -67.8220      39 -67.8013      40 -82.7745

 E-fermi :   7.5220     XC(G=0): -10.9704     alpha+bet :-13.1916

 val. band max:        7.2477243620   @ k =   0.2500   0.2500   0.0000
 cond. band min:       8.0044207298   @ k =   0.0000   0.0000   0.0000
 fundamental gap:      0.7566963679
 Fermi energy:         7.5219771918

[...]

 k-point    12 :       0.5000    0.5000    0.3333
  band No.  band energies     occupation
      1     -15.6111      2.00000
      2     -15.6063      2.00000
      3     -15.6063      2.00000
      4     -15.6037      2.00000
      5     -15.6014      2.00000
      6     -15.5990      2.00000
      7     -15.5990      2.00000
      8     -15.5940      2.00000
      9     -15.5029      2.00000
     10     -15.4983      2.00000
     11     -15.4983      2.00000
     12     -15.4975      2.00000
     13     -15.4894      2.00000
     14     -15.4845      2.00000
     15     -15.4845      2.00000
     16     -15.4840      2.00000
     17     -15.4189      2.00000
     18     -15.4178      2.00000
     19     -15.4178      2.00000
     20     -15.4160      2.00000
     21     -15.4062      2.00000
     22     -15.4041      2.00000
     23     -15.4041      2.00000
     24     -15.3941      2.00000
     25     -15.3792      2.00000
     26     -15.3770      2.00000
     27     -15.3770      2.00000
     28     -15.3745      2.00000
     29     -15.3718      2.00000
     30     -15.3711      2.00000
     31     -15.3701      2.00000
     32     -15.3701      2.00000
     33     -15.3686      2.00000
     34     -15.3686      2.00000
     35     -15.3686      2.00000
     36     -15.3670      2.00000
     37     -15.3669      2.00000
     38     -15.3656      2.00000
     39     -15.3656      2.00000
     40     -15.3649      2.00000
     41     -15.3584      2.00000
     42     -15.3571      2.00000
     43     -15.3571      2.00000
     44     -15.3568      2.00000
     45     -15.3557      2.00000
     46     -15.3557      2.00000
     47     -15.3504      2.00000
     48     -15.3486      2.00000
     49     -15.3424      2.00000
     50     -15.3424      2.00000
     51     -15.3418      2.00000
     52     -15.3418      2.00000
     53     -15.3412      2.00000
     54     -15.3406      2.00000
     55     -15.3389      2.00000
     56     -15.3385      2.00000
     57     -15.3259      2.00000
     58     -15.3248      2.00000
     59     -15.3233      2.00000
     60     -15.3233      2.00000
[...]
    218      12.2587      0.00000
    219      12.2764      0.00000
    220      12.2877      0.00000
    221      12.4331      0.00000
    222      12.4331      0.00000
    223      12.4340      0.00000
    224      12.4573      0.00000
    225      12.9064      0.00000
    226      12.9470      0.00000
    227      12.9470      0.00000
    228      12.9601      0.00000
    229      12.9969      0.00000
    230      12.9969      0.00000
    231      13.0864      0.00000
    232      13.0923      0.00000

 soft charge-density along one line, spin component           1
         0         1         2         3         4         5         6         7         8         9
 total charge-density along one line

------------------------ aborting loop because EDIFF is reached ----------------------------------------

  FORCE on cell =-STRESS in cart. coord.  units (eV):
  Direction    XX          YY          ZZ          XY          YZ          ZX
  Alpha Z  1455.32177  1455.32177  1455.32177
  Ewald   -8920.68487 -8920.68487-12887.34116    -0.00000     0.00000    -0.00000
  Hartree  4814.29582  4814.29582  1169.41941    -0.00000    -0.00000    -0.00000
  E(xc)   -1833.98264 -1833.98264 -1835.03933    -0.00000     0.00000     0.00000
  Local   -4236.44669 -4236.44669  3390.72956     0.00000     0.00000    -0.00000
  n-local  1595.83624  1601.18545  1610.84837     0.74368    -0.05998     0.14317
  augment  2176.56251  2176.56251  2160.16450     0.00000     0.00000     0.00000
  Kinetic  4984.30395  4992.35974  4968.48067    -4.19206     0.46930    -0.64978
  Fock        0.00000     0.00000     0.00000     0.00000     0.00000     0.00000
  Total      41.90860    41.90860    32.58380     0.00000     0.00000     0.00000
  in kB      96.73513    96.73513    75.21125     0.00000     0.00000     0.00000

 VOLUME and BASIS-vectors are now :
  energy-cutoff  :      520.00
  volume of cell :      694.11
      direct lattice vectors                 reciprocal lattice vectors
     7.604954277  0.000000000  0.000000000     0.131493230  0.000000000  0.000000000
     0.000000000  7.604954277  0.000000000     0.000000000  0.131493230  0.000000000
     0.000000000  0.000000000 12.001520752     0.000000000  0.000000000  0.083322774

  length of vectors
     7.604954277  7.604954277 12.001520752     0.131493230  0.131493230  0.083322774

 FORCES acting on ions
    electron-ion (+dipol)            ewald-force                    non-local-force                 convergence-correction
   -.748E+01 -.748E+01 -.419E+03   0.734E+01 0.734E+01 0.431E+03   0.141E+00 0.141E+00 -.116E+02   0.105E-05 0.105E-05 -.197E-05
   0.748E+01 -.748E+01 -.419E+03   -.734E+01 0.734E+01 0.431E+03   -.141E+00 0.141E+00 -.116E+02   -.105E-05 0.105E-05 -.197E-05
   -.748E+01 0.748E+01 -.419E+03   0.734E+01 -.734E+01 0.431E+03   0.141E+00 -.141E+00 -.116E+02   0.105E-05 -.105E-05 -.197E-05
   0.748E+01 0.748E+01 -.419E+03   -.734E+01 -.734E+01 0.431E+03   -.141E+00 -.141E+00 -.116E+02   -.105E-05 -.105E-05 -.197E-05
   -.296E-13 -.269E-11 0.452E+03   -.853E-13 -.284E-13 -.464E+03   -.691E-18 -.977E-19 0.115E+02   0.365E-11 0.256E-12 0.326E-06
   0.757E-12 0.324E-11 0.450E+03   -.284E-13 0.342E-13 -.461E+03   -.244E-18 0.101E-17 0.114E+02   -.393E-11 -.195E-11 -.747E-06
   -.279E-13 0.157E-11 0.450E+03   0.227E-12 0.284E-13 -.461E+03   0.671E-18 -.414E-18 0.114E+02   -.170E-12 0.693E-12 -.747E-06
   0.810E-12 0.362E-11 0.449E+03   -.142E-12 -.143E-12 -.461E+03   -.221E-18 -.329E-18 0.114E+02   -.451E-13 0.958E-13 -.235E-05
   -.558E-13 0.239E-11 -.452E+03   -.142E-12 0.284E-13 0.464E+03   0.696E-18 0.129E-18 -.115E+02   0.665E-11 0.166E-11 -.326E-06
   0.779E-12 -.312E-11 -.450E+03   -.114E-12 0.249E-13 0.461E+03   0.543E-18 0.172E-18 -.114E+02   -.668E-11 0.370E-11 0.748E-06
   -.530E-13 0.544E-12 -.450E+03   0.171E-12 0.284E-13 0.461E+03   -.797E-18 -.403E-18 -.114E+02   0.205E-11 -.158E-12 0.747E-06
   0.759E-12 0.262E-11 -.449E+03   -.568E-13 0.744E-14 0.461E+03   0.542E-18 -.492E-18 -.114E+02   -.202E-11 -.574E-12 0.235E-05
   -.748E+01 -.748E+01 0.419E+03   0.734E+01 0.734E+01 -.431E+03   0.141E+00 0.141E+00 0.116E+02   0.105E-05 0.105E-05 0.197E-05
   0.748E+01 -.748E+01 0.419E+03   -.734E+01 0.734E+01 -.431E+03   -.141E+00 0.141E+00 0.116E+02   -.105E-05 0.105E-05 0.197E-05
   -.748E+01 0.748E+01 0.419E+03   0.734E+01 -.734E+01 -.431E+03   0.141E+00 -.141E+00 0.116E+02   0.105E-05 -.105E-05 0.197E-05
   0.748E+01 0.748E+01 0.419E+03   -.734E+01 -.734E+01 -.431E+03   -.141E+00 -.141E+00 0.116E+02   -.105E-05 -.105E-05 0.197E-05
   0.452E-13 0.454E-13 0.452E-12   -.284E-13 -.142E-13 0.959E-13   -.104E-27 0.897E-27 0.604E-27   -.193E-12 -.685E-12 -.270E-11
   0.151E-13 0.323E-13 0.627E-13   0.114E-12 0.142E-13 0.131E-12   -.197E-27 -.914E-28 0.939E-27   -.420E-11 0.380E-12 -.174E-11
   0.445E-13 -.465E-12 0.396E-12   -.114E-12 -.284E-13 0.604E-13   0.187E-27 0.210E-27 0.416E-27   0.417E-11 0.616E-12 -.248E-11
   -.215E+01 -.215E+01 -.105E-06   0.216E+01 0.216E+01 -.560E-13   -.991E-02 -.991E-02 0.648E-20   0.721E-06 0.721E-06 0.199E-11
   0.215E+01 -.215E+01 -.132E-11   -.216E+01 0.216E+01 -.631E-13   0.991E-02 -.991E-02 -.618E-20   -.721E-06 0.721E-06 0.193E-11
   -.215E+01 0.215E+01 0.210E-11   0.216E+01 -.216E+01 -.981E-14   -.991E-02 0.991E-02 -.532E-20   0.721E-06 -.721E-06 0.199E-11
   0.215E+01 0.215E+01 0.105E-06   -.216E+01 -.216E+01 -.844E-13   0.991E-02 0.991E-02 0.565E-20   -.721E-06 -.721E-06 0.236E-11
   0.110E-13 -.291E+01 0.923E+01   0.114E-12 0.293E+01 -.938E+01   -.183E-18 -.184E-01 0.149E+00   -.219E-12 0.533E-06 -.447E-05
   0.273E-12 -.232E+01 0.351E+01   -.284E-13 0.233E+01 -.337E+01   0.266E-18 -.816E-02 -.142E+00   0.183E-12 0.517E-06 -.249E-05
   0.677E-14 0.291E+01 0.923E+01   0.711E-13 -.293E+01 -.938E+01   -.511E-19 0.184E-01 0.149E+00   -.770E-12 -.533E-06 -.447E-05
   0.262E-12 0.232E+01 0.351E+01   -.426E-13 -.233E+01 -.337E+01   -.306E-18 0.816E-02 -.142E+00   0.725E-12 -.517E-06 -.249E-05
   -.291E+01 0.540E-12 0.923E+01   0.293E+01 -.355E-13 -.938E+01   -.184E-01 -.174E-18 0.149E+00   0.533E-06 -.452E-12 -.447E-05
   0.291E+01 0.777E-12 0.923E+01   -.293E+01 -.853E-13 -.938E+01   0.184E-01 -.512E-18 0.149E+00   -.533E-06 -.313E-13 -.447E-05
   -.232E+01 -.213E-12 0.351E+01   0.233E+01 -.249E-13 -.337E+01   -.816E-02 -.454E-18 -.142E+00   0.517E-06 -.708E-13 -.249E-05
   0.232E+01 -.417E-11 0.351E+01   -.233E+01 0.000E+00 -.337E+01   0.816E-02 0.805E-19 -.142E+00   -.517E-06 0.746E-12 -.249E-05
   -.291E+01 -.671E-12 -.923E+01   0.293E+01 0.107E-13 0.938E+01   -.184E-01 -.439E-19 -.149E+00   0.533E-06 0.104E-11 0.447E-05
   0.291E+01 -.385E-12 -.923E+01   -.293E+01 -.284E-13 0.938E+01   0.184E-01 0.196E-18 -.149E+00   -.533E-06 0.338E-11 0.447E-05
   -.232E+01 -.710E-12 -.351E+01   0.233E+01 -.213E-13 0.337E+01   -.816E-02 -.956E-19 0.142E+00   0.517E-06 -.302E-12 0.249E-05
   0.232E+01 -.908E-11 -.351E+01   -.233E+01 0.142E-13 0.337E+01   0.816E-02 -.208E-18 0.142E+00   -.517E-06 -.717E-12 0.249E-05
   0.570E-13 -.291E+01 -.923E+01   0.995E-13 0.293E+01 0.938E+01   0.173E-18 -.184E-01 -.149E+00   0.146E-11 0.533E-06 0.447E-05
   0.296E-12 -.232E+01 -.351E+01   -.568E-13 0.233E+01 0.337E+01   0.352E-18 -.816E-02 0.142E+00   -.145E-11 0.517E-06 0.249E-05
   0.561E-13 0.291E+01 -.923E+01   0.568E-13 -.293E+01 0.938E+01   -.299E-18 0.184E-01 -.149E+00   0.287E-11 -.533E-06 0.447E-05
   0.286E-12 0.232E+01 -.351E+01   -.142E-13 -.233E+01 0.337E+01   0.184E-18 0.816E-02 0.142E+00   -.285E-11 -.517E-06 0.249E-05
   0.186E-13 0.251E-13 0.427E-13   0.853E-13 0.000E+00 0.110E-12   0.106E-26 0.208E-26 0.597E-27   0.215E-12 -.267E-12 -.265E-11
   0.215E-10 0.602E-11 0.301E-09   0.000E+00 -.208E-12 -.643E-12   0.282E-16 -.226E-16 -.141E-13   -.115E-11 0.526E-11 -.251E-10

 POSITION                                       TOTAL-FORCE (eV/Angst)
      1.89126      1.89126     10.30223        -0.000001     -0.000001      0.000002
      5.71370      1.89126     10.30223         0.000001     -0.000001      0.000002
      1.89126      5.71370     10.30223        -0.000001      0.000001      0.000002
      5.71370      5.71370     10.30223         0.000001      0.000001      0.000002
      0.00000      0.00000      7.70988        -0.000000      0.000000     -0.000002
      3.80248      0.00000      7.72085         0.000000      0.000000     -0.000003
      0.00000      3.80248      7.72085        -0.000000      0.000000     -0.000003
      3.80248      3.80248      7.73278         0.000000      0.000000     -0.000004
      0.00000      0.00000      4.29164         0.000000      0.000000      0.000002
      3.80248      0.00000      4.28067         0.000000      0.000000      0.000003
      0.00000      3.80248      4.28067        -0.000000      0.000000      0.000003
      3.80248      3.80248      4.26874        -0.000000      0.000000      0.000004
      1.89126      1.89126      1.69929        -0.000001     -0.000001     -0.000002
      5.71370      1.89126      1.69929         0.000001     -0.000001     -0.000002
      1.89126      5.71370      1.69929        -0.000001      0.000001     -0.000002
      5.71370      5.71370      1.69929         0.000001      0.000001     -0.000002
      3.80248      0.00000      0.00000         0.000000      0.000000     -0.000000
      0.00000      3.80248      0.00000        -0.000000      0.000000     -0.000000
      3.80248      3.80248      0.00000        -0.000000      0.000000     -0.000000
      1.90488      1.90488      6.00076         0.000003      0.000003     -0.000000
      5.70007      1.90488      6.00076        -0.000003      0.000003     -0.000000
      1.90488      5.70007      6.00076         0.000003     -0.000003     -0.000000
      5.70007      5.70007      6.00076        -0.000003     -0.000003     -0.000000
      0.00000      1.89659      9.00391        -0.000000     -0.000000      0.000001
      3.80248      1.89759      9.02002         0.000000     -0.000000      0.000000
      0.00000      5.70837      9.00391         0.000000      0.000000      0.000001
      3.80248      5.70736      9.02002        -0.000000      0.000000      0.000000
      1.89659      0.00000      9.00391        -0.000000      0.000000      0.000001
      5.70837      0.00000      9.00391         0.000000      0.000000      0.000001
      1.89759      3.80248      9.02002        -0.000000      0.000000      0.000000
      5.70736      3.80248      9.02002         0.000000      0.000000      0.000000
      1.89659      0.00000      2.99761        -0.000000      0.000000     -0.000001
      5.70837      0.00000      2.99761         0.000000      0.000000     -0.000001
      1.89759      3.80248      2.98150        -0.000000      0.000000     -0.000000
      5.70736      3.80248      2.98150         0.000000      0.000000     -0.000000
      0.00000      1.89659      2.99761        -0.000000     -0.000000     -0.000001
      3.80248      1.89759      2.98150         0.000000     -0.000000     -0.000000
      0.00000      5.70837      2.99761         0.000000      0.000000     -0.000001
      3.80248      5.70736      2.98150        -0.000000      0.000000     -0.000000
      0.00000      0.00000      0.00000         0.000000      0.000000     -0.000000
    total drift:                                0.000000      0.000000      0.000000

  FREE ENERGIE OF THE ION-ELECTRON SYSTEM (eV)
  free  energy   TOTEN  =      -207.09906644 eV

  energy  without entropy=     -207.09906644  energy(sigma->0) =     -207.09906644

 d Force = 0.3331441E-10[-0.136E-10, 0.803E-10]  d Energy = 0.1331500E-08-0.130E-08
 d Force =-0.1677699E-02[-0.168E-02,-0.168E-02]  d Ewald  =-0.1677699E-02-0.124E-09

 Conjugate gradient step on ions:
 trial-energy change:   -0.000000  1 .order   -0.000000   -0.000000    0.000000
  (g-gl).g = 0.570E-10      g.g   = 0.126E-09  gl.gl    = 0.139E-09
 g(Force)  = 0.126E-09   g(Stress)= 0.000E+00 ortho     =-0.133E-10
 gamma     =   0.40999
 trial     =   0.66786
 opt step  =   0.57085  (harmonic =   0.57085) maximal distance =0.00000086
 next E    =  -207.099066   (d E  =  -0.00000)

 reached required accuracy - stopping structural energy minimisation