 vasp.6.4.3 19Mar24 (build Apr 09 2025 20:43:19) complex

 executed on             LinuxIFC date 2025.04.15  13:20:45

 INCAR:
   PREC = Accurate
   IBRION = 2
   NSW = 100
   NELMIN = 5
   ISIF = 2
   ENCUT = 520
   EDIFF = 1.000000e-08
   EDIFFG = -1.000000e-5
   ISMEAR = 0
   SIGMA = 0.05
   IALGO = 38
   LREAL = .FALSE.
   ADDGRID = .TRUE.
   LWAVE = .FALSE.
   LCHARG = .FALSE.
   NCORE = 9

 POTCAR:    PAW_PBE Bi_d 06Sep2000
 POTCAR:    PAW_PBE Se 06Sep2000
 POTCAR:    PAW_PBE O 08Apr2002
 POTCAR:    PAW_PBE S 06Sep2000
 POTCAR:    PAW_PBE Bi_d 06Sep2000
   VRHFIN =Bi:

   TITEL  = PAW_PBE Bi_d 06Sep2000
   POMASS =  208.980; ZVAL   =   15.000    mass and valenz
   ENMAX  =  242.839; ENMIN  =  182.129 eV

   TITEL  = PAW_PBE Se 06Sep2000
   POMASS =   78.960; ZVAL   =    6.000    mass and valenz
   ENMAX  =  211.555; ENMIN  =  158.666 eV

   TITEL  = PAW_PBE O 08Apr2002
   POMASS =   16.000; ZVAL   =    6.000    mass and valenz
   ENMAX  =  400.000; ENMIN  =  300.000 eV

   TITEL  = PAW_PBE S 06Sep2000
   POMASS =   32.066; ZVAL   =    6.000    mass and valenz
   ENMAX  =  258.689; ENMIN  =  194.016 eV

  PAW_PBE Bi_d 06Sep2000                :
  PAW_PBE Se 06Sep2000                  :
  PAW_PBE O 08Apr2002                   :
  PAW_PBE S 06Sep2000                   :

 POSCAR: generated by phonopy
  positions in direct lattice
  velocities in cartesian coordinates

 exchange-correlation table for PE
   RHO(1)=    0.500       N(1)  =     2000
   RHO(2)=  100.500       N(2)  =     4000

 ion  position               nearest neighbor table
   1  0.249  0.249  0.850-  24 2.37  28 2.37  25 2.39  30 2.39   8 3.81   7 3.81   6 3.81   5 3.81
                            13 3.83
   2  0.751  0.249  0.850-  24 2.37  29 2.37  25 2.39  31 2.39   8 3.81   7 3.81   6 3.81   5 3.81
                            14 3.83
   3  0.249  0.751  0.850-  26 2.37  28 2.37  27 2.39  30 2.39   8 3.81   7 3.81   6 3.81   5 3.81
                            15 3.83
   4  0.751  0.751  0.850-  26 2.37  29 2.37  27 2.39  31 2.39   8 3.81   7 3.81   6 3.81   5 3.81
                            16 3.83
   5  0.000  0.000  0.651-  24 2.39  26 2.39  28 2.39  29 2.39   1 3.81   2 3.81   3 3.81   4 3.81
                             9 3.84
   6  0.500  0.000  0.652-  28 2.38  29 2.38  25 2.38  27 2.38   1 3.81   2 3.81   3 3.81   4 3.81
                            10 3.88
   7  0.000  0.500  0.652-  24 2.38  26 2.38  30 2.38  31 2.38   1 3.81   2 3.81   3 3.81   4 3.81
                            11 3.88
   8  0.500  0.500  0.654-  25 2.37  27 2.37  30 2.37  31 2.37   1 3.81   2 3.81   3 3.81   4 3.81
                            12 3.91
   9  0.000  0.000  0.349-  32 2.39  33 2.39  36 2.39  38 2.39  13 3.81  14 3.81  15 3.81  16 3.81
                             5 3.84
  10  0.500  0.000  0.348-  32 2.38  33 2.38  37 2.38  39 2.38  13 3.81  14 3.81  15 3.81  16 3.81
                             6 3.88
  11  0.000  0.500  0.348-  36 2.38  38 2.38  34 2.38  35 2.38  13 3.81  14 3.81  15 3.81  16 3.81
                             7 3.88
  12  0.500  0.500  0.346-  34 2.37  35 2.37  37 2.37  39 2.37  13 3.81  14 3.81  15 3.81  16 3.81
                             8 3.91
  13  0.249  0.249  0.150-  36 2.37  32 2.37  34 2.39  37 2.39  12 3.81  11 3.81  10 3.81   9 3.81
                             1 3.83
  14  0.751  0.249  0.150-  36 2.37  33 2.37  35 2.39  37 2.39  12 3.81  11 3.81  10 3.81   9 3.81
                             2 3.83
  15  0.249  0.751  0.150-  38 2.37  32 2.37  34 2.39  39 2.39  12 3.81  11 3.81  10 3.81   9 3.81
                             3 3.83
  16  0.751  0.751  0.150-  38 2.37  33 2.37  35 2.39  39 2.39  12 3.81  11 3.81  10 3.81   9 3.81
                             4 3.83
  17  0.500  0.000  0.000-
  18  0.000  0.500  0.000-
  19  0.500  0.500  0.000-
  20  0.248  0.248  0.500-
  21  0.752  0.248  0.500-
  22  0.248  0.752  0.500-
  23  0.752  0.752  0.500-
  24  0.000  0.250  0.751-   1 2.37   2 2.37   7 2.38   5 2.39
  25  0.500  0.250  0.751-   8 2.37   6 2.38   1 2.39   2 2.39
  26  0.000  0.750  0.751-   3 2.37   4 2.37   7 2.38   5 2.39
  27  0.500  0.750  0.751-   8 2.37   6 2.38   3 2.39   4 2.39
  28  0.250  0.000  0.751-   1 2.37   3 2.37   6 2.38   5 2.39
  29  0.750  0.000  0.751-   2 2.37   4 2.37   6 2.38   5 2.39
  30  0.250  0.500  0.751-   8 2.37   7 2.38   1 2.39   3 2.39
  31  0.750  0.500  0.751-   8 2.37   7 2.38   2 2.39   4 2.39
  32  0.250  0.000  0.249-  13 2.37  15 2.37  10 2.38   9 2.39
  33  0.750  0.000  0.249-  14 2.37  16 2.37  10 2.38   9 2.39
  34  0.250  0.500  0.249-  12 2.37  11 2.38  13 2.39  15 2.39
  35  0.750  0.500  0.249-  12 2.37  11 2.38  14 2.39  16 2.39
  36  0.000  0.250  0.249-  13 2.37  14 2.37  11 2.38   9 2.39
  37  0.500  0.250  0.249-  12 2.37  10 2.38  13 2.39  14 2.39
  38  0.000  0.750  0.249-  15 2.37  16 2.37  11 2.38   9 2.39
  39  0.500  0.750  0.249-  12 2.37  10 2.38  15 2.39  16 2.39
  40  0.000  0.000  0.000-

  LATTYP: Found a simple tetragonal cell.
 ALAT       =     8.0753638201
 C/A-ratio  =     1.5781187256

  Lattice vectors:

 A1 = (   8.0753638201,   0.0000000000,   0.0000000000)
 A2 = (   0.0000000000,   8.0753638201,   0.0000000000)
 A3 = (   0.0000000000,   0.0000000000,  12.7438828606)

Analysis of symmetry for initial positions (statically):
 Subroutine PRICEL returns:
 Original cell was already a primitive cell.

 Routine SETGRP: Setting up the symmetry group for a
 simple tetragonal supercell.

 Subroutine GETGRP returns: Found 16 space group operations
 (whereof 16 operations were pure point group operations)
 out of a pool of 16 trial point group operations.

The static configuration has the point symmetry D_4h.

Analysis of symmetry for dynamics (positions and initial velocities):
 Subroutine PRICEL returns:
 Original cell was already a primitive cell.

 Routine SETGRP: Setting up the symmetry group for a
 simple tetragonal supercell.

 Subroutine GETGRP returns: Found 16 space group operations
 (whereof 16 operations were pure point group operations)
 out of a pool of 16 trial point group operations.

The dynamic configuration has the point symmetry D_4h.

 Subroutine INISYM returns: Found 16 space group operations
 (whereof 16 operations are pure point group operations),
 and found     1 'primitive' translations

                                     Primitive cell

  volume of cell :     831.0477

  direct lattice vectors                    reciprocal lattice vectors
     8.075363820  0.000000000  0.000000000     0.123833430  0.000000000  0.000000000
     0.000000000  8.075363820  0.000000000     0.000000000  0.123833430  0.000000000
     0.000000000  0.000000000 12.743882861     0.000000000  0.000000000  0.078469020

  length of vectors
     8.075363820  8.075363820 12.743882861     0.123833430  0.123833430  0.078469020

  position of ions in fractional coordinates (direct lattice)
     0.248897652  0.248897652  0.849840824
     0.751102348  0.248897652  0.849840824
     0.248897652  0.751102348  0.849840824
     0.751102348  0.751102348  0.849840824
     0.000000000  0.000000000  0.650631014
     0.500000000  0.000000000  0.652064188
     0.000000000  0.500000000  0.652064188
     0.500000000  0.500000000  0.653572128
     0.000000000  0.000000000  0.349368986
     0.500000000  0.000000000  0.347935812
     0.000000000  0.500000000  0.347935812
     0.500000000  0.500000000  0.346427872
     0.248897652  0.248897652  0.150159176
     0.751102348  0.248897652  0.150159176
     0.248897652  0.751102348  0.150159176
     0.751102348  0.751102348  0.150159176
     0.500000000  0.000000000  0.000000000
     0.000000000  0.500000000  0.000000000
     0.500000000  0.500000000  0.000000000
     0.248446556  0.248446556  0.500000000
     0.751553444  0.248446556  0.500000000
     0.248446556  0.751553444  0.500000000
     0.751553444  0.751553444  0.500000000
     0.000000000  0.249977442  0.750789333
     0.500000000  0.250100728  0.751150170
     0.000000000  0.750022558  0.750789333
     0.500000000  0.749899272  0.751150170
     0.249977442  0.000000000  0.750789333
     0.750022558  0.000000000  0.750789333
     0.250100728  0.500000000  0.751150170
     0.749899272  0.500000000  0.751150170
     0.249977442  0.000000000  0.249210667
     0.750022558  0.000000000  0.249210667
     0.250100728  0.500000000  0.248849830
     0.749899272  0.500000000  0.248849830
     0.000000000  0.249977442  0.249210667
     0.500000000  0.250100728  0.248849830
     0.000000000  0.750022558  0.249210667
     0.500000000  0.749899272  0.248849830
     0.000000000  0.000000000  0.000000000

  ion indices of the primitive-cell ions
   primitive index   ion index
                 1           1
                 2           2
                 3           3
                 4           4
                 5           5
                 6           6
                 7           7
                 8           8
                 9           9
                10          10
                11          11
                12          12
                13          13
                14          14
                15          15
                16          16
                17          17
                18          18
                19          19
                20          20
                21          21
                22          22
                23          23
                24          24
                25          25
                26          26
                27          27
                28          28
                29          29
                30          30
                31          31
                32          32
                33          33
                34          34
                35          35
                36          36
                37          37
                38          38
                39          39
                40          40

 KPOINTS: K-Spacing Value to Generate K-Mesh: 0.03

Automatic generation of k-mesh.
 Grid dimensions read from file:
 generate k-points for:    4    4    3

 Generating k-lattice:

  Cartesian coordinates                     Fractional coordinates (reciprocal lattice)
     0.030958357  0.000000000  0.000000000     0.250000000  0.000000000  0.000000000
     0.000000000  0.030958357  0.000000000     0.000000000  0.250000000  0.000000000
     0.000000000  0.000000000  0.026156340     0.000000000  0.000000000  0.333333333

  Length of vectors
     0.030958357  0.030958357  0.026156340

  Shift w.r.t. Gamma in fractional coordinates (k-lattice)
     0.000000000  0.000000000  0.000000000

 Subroutine IBZKPT returns following result:

 Found     12 irreducible k-points:

 Following reciprocal coordinates:
            Coordinates               Weight
  0.000000  0.000000  0.000000      1.000000
  0.250000  0.000000  0.000000      4.000000
  0.500000  0.000000  0.000000      2.000000
  0.250000  0.250000  0.000000      4.000000
  0.500000  0.250000  0.000000      4.000000
  0.500000  0.500000  0.000000      1.000000
  0.000000  0.000000  0.333333      2.000000
  0.250000  0.000000  0.333333      8.000000
  0.500000  0.000000  0.333333      4.000000
[...]
 number of electron     384.0000010 magnetization
 augmentation part       94.9896661 magnetization

[...]

 Broyden mixing:
  rms(total) = 0.34791E-06    rms(broyden)= 0.34786E-06
  rms(prec ) = 0.40079E-06
  weight for this iteration     100.00

 eigenvalues of (default mixing * dielectric matrix)
  average eigenvalue GAMMA=   0.9077
  1.1576  1.1576  0.4080

[...]

--------------------------------------- Iteration     22(   5)  ---------------------------------------

 eigenvalue-minimisations  :  2928
 total energy-change (2. order) : 0.2946763E-09  (-0.2200914E-11)
 number of electron     384.0000010 magnetization
 augmentation part       94.9896661 magnetization

 Free energy of the ion-electron system (eV)
  alpha Z        PSCENC =      1215.52124893
  Ewald energy   TEWEN  =    -28165.03209756
  -Hartree energ DENC   =    -12358.40716717
  -exchange      EXHF   =         0.00000000
  -V(xc)+E(xc)   XCENC  =      1243.47483582
  PAW double counting   =     35646.82838655   -35036.84118591
  entropy T*S    EENTRO =        -0.00107047
  eigenvalues    EBANDS =     -3094.75349998
  atomic energy  EATOM  =     40341.65184589
  Solvation  Ediel_sol  =         0.00000000
  free energy    TOTEN  =      -207.55870390 eV

  energy without entropy =     -207.55763343  energy(sigma->0) =     -207.55816866

 average (electrostatic) potential at core
  the test charge radii are     1.0856  1.0808  0.7215  0.9698
  (the norm of the test charge is              1.0000)
       1-105.8804       2-105.8804       3-105.8804       4-105.8804       5-105.8656
       6-105.8766       7-105.8766       8-105.8742       9-105.8656      10-105.8766
      11-105.8766      12-105.8742      13-105.8804      14-105.8804      15-105.8804
      16-105.8804      17 -51.4801      18 -51.4801      19 -51.4407      20 -51.4606
      21 -51.4606      22 -51.4606      23 -51.4606      24 -69.8552      25 -69.8525
      26 -69.8552      27 -69.8525      28 -69.8552      29 -69.8552      30 -69.8525
      31 -69.8525      32 -69.8552      33 -69.8552      34 -69.8525      35 -69.8525
      36 -69.8552      37 -69.8525      38 -69.8552      39 -69.8525      40 -84.5610

 E-fermi :   5.5908     XC(G=0): -10.0506     alpha+bet :-11.0180

 val. band max:        5.5264252624   @ k =   0.0000   0.0000   0.3333
 cond. band min:       5.6205154566   @ k =   0.0000   0.0000   0.0000
 fundamental gap:      0.0940901942
 Fermi energy:         5.5907990996

[...]

 k-point    12 :       0.5000    0.5000    0.3333
  band No.  band energies     occupation
      1     -17.8085      2.00000
      2     -17.8076      2.00000
      3     -17.8076      2.00000
      4     -17.8073      2.00000
      5     -17.8065      2.00000
      6     -17.8056      2.00000
      7     -17.8056      2.00000
      8     -17.8052      2.00000
      9     -17.7416      2.00000
     10     -17.7382      2.00000
     11     -17.7379      2.00000
     12     -17.7377      2.00000
     13     -17.7377      2.00000
     14     -17.7347      2.00000
     15     -17.7338      2.00000
     16     -17.7338      2.00000
     17     -17.7008      2.00000
     18     -17.7008      2.00000
     19     -17.7006      2.00000
     20     -17.7004      2.00000
     21     -17.6930      2.00000
     22     -17.6930      2.00000
     23     -17.6915      2.00000
     24     -17.6883      2.00000
     25     -17.6784      2.00000
     26     -17.6778      2.00000
     27     -17.6778      2.00000
     28     -17.6761      2.00000
     29     -17.6752      2.00000
     30     -17.6752      2.00000
     31     -17.6745      2.00000
     32     -17.6731      2.00000
     33     -17.6728      2.00000
     34     -17.6727      2.00000
     35     -17.6718      2.00000
     36     -17.6718      2.00000
     37     -17.6710      2.00000
     38     -17.6709      2.00000
     39     -17.6705      2.00000
     40     -17.6705      2.00000
     41     -17.6671      2.00000
     42     -17.6660      2.00000
     43     -17.6660      2.00000
     44     -17.6653      2.00000
     45     -17.6631      2.00000
     46     -17.6628      2.00000
     47     -17.6628      2.00000
     48     -17.6561      2.00000
     49     -17.6533      2.00000
     50     -17.6533      2.00000
     51     -17.6525      2.00000
     52     -17.6525      2.00000
     53     -17.6524      2.00000
     54     -17.6524      2.00000
     55     -17.6522      2.00000
     56     -17.6519      2.00000
     57     -17.6515      2.00000
     58     -17.6514      2.00000
     59     -17.6514      2.00000
     60     -17.6486      2.00000
[...]
    218       9.1408      0.00000
    219       9.1510      0.00000
    220       9.1553      0.00000
    221       9.2842      0.00000
    222       9.2851      0.00000
    223       9.2851      0.00000
    224       9.3079      0.00000
    225       9.8553      0.00000
    226       9.8553      0.00000
    227       9.9076      0.00000
    228       9.9167      0.00000
    229       9.9307      0.00000
    230       9.9827      0.00000
    231       9.9850      0.00000
    232       9.9850      0.00000

 soft charge-density along one line, spin component           1
         0         1         2         3         4         5         6         7         8         9
 total charge-density along one line

------------------------ aborting loop because EDIFF is reached ----------------------------------------

  FORCE on cell =-STRESS in cart. coord.  units (eV):
  Direction    XX          YY          ZZ          XY          YZ          ZX
  Alpha Z  1215.52125  1215.52125  1215.52125
  Ewald   -7169.26571 -7169.26571-13826.61296     0.00000    -0.00000     0.00000
  Hartree  6023.94395  6023.94395   310.51926    -0.00000    -0.00000    -0.00000
  E(xc)   -1818.82465 -1818.82465 -1821.10894    -0.00000    -0.00000    -0.00000
  Local   -6932.60654 -6932.60654  5440.30746     0.00000     0.00000     0.00000
  n-local  1562.86812  1572.60025  1568.28928     0.26107    -0.05743     0.08380
  augment  2176.17836  2176.17836  2161.69184    -0.00000     0.00000     0.00000
  Kinetic  4900.32343  4910.06202  4927.56492    -3.10262     0.42276    -0.45082
  Fock        0.00000     0.00000     0.00000     0.00000     0.00000     0.00000
  Total     -32.12642   -32.12642   -23.82790     0.00000     0.00000    -0.00000
  in kB     -61.93655   -61.93655   -45.93782     0.00000     0.00000    -0.00000

 VOLUME and BASIS-vectors are now :
  energy-cutoff  :      520.00
  volume of cell :      831.05
      direct lattice vectors                 reciprocal lattice vectors
     8.075363820  0.000000000  0.000000000     0.123833430  0.000000000  0.000000000
     0.000000000  8.075363820  0.000000000     0.000000000  0.123833430  0.000000000
     0.000000000  0.000000000 12.743882861     0.000000000  0.000000000  0.078469020

  length of vectors
     8.075363820  8.075363820 12.743882861     0.123833430  0.123833430  0.078469020

 FORCES acting on ions
    electron-ion (+dipol)            ewald-force                    non-local-force                 convergence-correction
   -.528E+01 -.528E+01 -.453E+03   0.524E+01 0.524E+01 0.463E+03   0.381E-01 0.381E-01 -.101E+02   0.109E-06 0.109E-06 -.393E-06
   0.528E+01 -.528E+01 -.453E+03   -.524E+01 0.524E+01 0.463E+03   -.381E-01 0.381E-01 -.101E+02   -.109E-06 0.109E-06 -.393E-06
   -.528E+01 0.528E+01 -.453E+03   0.524E+01 -.524E+01 0.463E+03   0.381E-01 -.381E-01 -.101E+02   0.109E-06 -.109E-06 -.393E-06
   0.528E+01 0.528E+01 -.453E+03   -.524E+01 -.524E+01 0.463E+03   -.381E-01 -.381E-01 -.101E+02   -.109E-06 -.109E-06 -.393E-06
   0.151E-11 -.896E-12 0.477E+03   -.142E-12 -.284E-13 -.486E+03   0.155E-17 -.207E-18 0.956E+01   -.743E-11 -.426E-11 -.547E-05
   0.807E-12 0.249E-11 0.482E+03   0.142E-13 -.533E-14 -.492E+03   0.255E-18 0.854E-19 0.100E+02   0.690E-11 -.167E-11 -.322E-06
   0.152E-11 0.437E-11 0.482E+03   0.142E-13 0.284E-13 -.492E+03   0.511E-18 -.501E-18 0.100E+02   -.176E-11 0.852E-12 -.322E-06
   0.837E-12 -.582E-12 0.489E+03   0.853E-13 0.799E-13 -.499E+03   0.127E-17 0.516E-18 0.105E+02   0.126E-11 0.142E-11 0.486E-05
   0.145E-11 0.718E-12 -.477E+03   -.128E-12 0.568E-13 0.486E+03   -.143E-17 -.147E-18 -.956E+01   -.536E-11 0.289E-11 0.547E-05
   0.734E-12 -.232E-11 -.482E+03   0.142E-12 0.128E-12 0.492E+03   -.592E-18 0.960E-19 -.100E+02   0.484E-11 0.332E-11 0.322E-06
   0.147E-11 0.784E-11 -.482E+03   -.114E-12 0.853E-13 0.492E+03   0.241E-18 -.440E-18 -.100E+02   -.350E-11 -.337E-11 0.322E-06
   0.768E-12 0.194E-11 -.489E+03   0.284E-13 0.355E-14 0.499E+03   -.425E-18 0.871E-18 -.105E+02   0.306E-11 -.437E-12 -.486E-05
   -.528E+01 -.528E+01 0.453E+03   0.524E+01 0.524E+01 -.463E+03   0.381E-01 0.381E-01 0.101E+02   0.109E-06 0.109E-06 0.393E-06
   0.528E+01 -.528E+01 0.453E+03   -.524E+01 0.524E+01 -.463E+03   -.381E-01 0.381E-01 0.101E+02   -.109E-06 0.109E-06 0.393E-06
   -.528E+01 0.528E+01 0.453E+03   0.524E+01 -.524E+01 -.463E+03   0.381E-01 -.381E-01 0.101E+02   0.109E-06 -.109E-06 0.393E-06
   0.528E+01 0.528E+01 0.453E+03   -.524E+01 -.524E+01 -.463E+03   -.381E-01 -.381E-01 0.101E+02   -.109E-06 -.109E-06 0.393E-06
   0.760E-13 0.599E-13 0.359E-12   0.114E-12 -.284E-13 -.497E-13   0.675E-27 0.963E-27 0.185E-26   -.310E-11 -.503E-12 0.260E-11
   0.103E-12 0.206E-11 0.647E-12   0.284E-13 0.284E-13 -.497E-13   -.527E-27 -.205E-26 0.190E-26   -.928E-13 -.200E-12 0.204E-11
   0.765E-13 -.586E-12 0.297E-12   0.000E+00 -.284E-13 -.604E-13   0.515E-27 -.109E-26 -.480E-27   0.513E-13 0.562E-12 0.249E-11
   -.486E+01 -.486E+01 0.314E-06   0.488E+01 0.488E+01 0.122E-12   -.221E-01 -.221E-01 0.666E-20   -.187E-05 -.187E-05 -.365E-11
   0.486E+01 -.486E+01 0.100E-11   -.488E+01 0.488E+01 0.100E-12   0.221E-01 -.221E-01 0.975E-20   0.187E-05 -.187E-05 -.551E-11
   -.486E+01 0.486E+01 0.175E-12   0.488E+01 -.488E+01 0.104E-12   -.221E-01 0.221E-01 0.225E-20   -.187E-05 0.187E-05 -.285E-11
   0.486E+01 0.486E+01 -.314E-06   -.488E+01 -.488E+01 0.932E-13   0.221E-01 0.221E-01 0.407E-20   0.187E-05 0.187E-05 -.281E-11
   0.644E-12 -.672E+00 0.794E+01   0.711E-13 0.489E+00 -.819E+01   -.126E-18 0.183E+00 0.250E+00   -.802E-12 0.194E-05 -.509E-06
   0.376E-12 -.128E+00 0.438E+01   -.284E-13 -.652E-01 -.412E+01   -.104E-18 0.193E+00 -.258E+00   0.435E-12 0.193E-05 -.643E-06
   0.638E-12 0.672E+00 0.794E+01   0.568E-13 -.489E+00 -.819E+01   -.869E-19 -.183E+00 0.250E+00   -.115E-11 -.194E-05 -.509E-06
   0.377E-12 0.128E+00 0.438E+01   0.426E-13 0.652E-01 -.412E+01   0.145E-18 -.193E+00 -.258E+00   0.790E-12 -.193E-05 -.643E-06
   -.672E+00 0.560E-12 0.794E+01   0.489E+00 -.711E-14 -.819E+01   0.183E+00 0.266E-18 0.250E+00   0.194E-05 -.794E-12 -.509E-06
   0.672E+00 -.632E-12 0.794E+01   -.489E+00 -.142E-13 -.819E+01   -.183E+00 0.675E-19 0.250E+00   -.194E-05 -.207E-11 -.509E-06
   -.128E+00 -.287E-12 0.438E+01   -.652E-01 0.391E-13 -.412E+01   0.193E+00 -.133E-18 -.258E+00   0.193E-05 -.178E-12 -.643E-06
   0.128E+00 0.112E-11 0.438E+01   0.652E-01 0.568E-13 -.412E+01   -.193E+00 -.995E-19 -.258E+00   -.193E-05 -.735E-12 -.643E-06
   -.672E+00 0.771E-12 -.794E+01   0.489E+00 -.711E-14 0.819E+01   0.183E+00 0.309E-18 -.250E+00   0.194E-05 0.101E-11 0.509E-06
   0.672E+00 -.361E-12 -.794E+01   -.489E+00 0.284E-13 0.819E+01   -.183E+00 0.268E-18 -.250E+00   -.194E-05 0.645E-12 0.509E-06
   -.128E+00 0.103E-11 -.438E+01   -.652E-01 0.675E-13 0.412E+01   0.193E+00 -.349E-18 0.258E+00   0.193E-05 -.672E-12 0.643E-06
   0.128E+00 0.514E-11 -.438E+01   0.652E-01 0.853E-13 0.412E+01   -.193E+00 0.115E-18 0.258E+00   -.193E-05 -.264E-11 0.643E-06
   0.616E-12 -.672E+00 -.794E+01   0.995E-13 0.489E+00 0.819E+01   0.241E-18 0.183E+00 -.250E+00   -.333E-11 0.194E-05 0.509E-06
   0.367E-12 -.128E+00 -.438E+01   -.995E-13 -.652E-01 0.412E+01   -.113E-18 0.193E+00 0.258E+00   0.314E-11 0.193E-05 0.643E-06
   0.619E-12 0.672E+00 -.794E+01   0.284E-13 -.489E+00 0.819E+01   0.126E-18 -.183E+00 -.250E+00   -.256E-11 -.194E-05 0.509E-06
   0.366E-12 0.128E+00 -.438E+01   0.142E-13 0.652E-01 0.412E+01   0.308E-19 -.193E+00 0.258E+00   0.236E-11 -.193E-05 0.643E-06
   0.981E-13 0.435E-13 0.498E-12   0.568E-13 0.142E-13 -.131E-12   0.109E-26 0.425E-27 -.166E-26   0.319E-11 -.147E-12 0.223E-11
   0.197E-10 0.130E-10 -.217E-09   0.213E-12 0.302E-12 -.345E-12   0.285E-18 0.278E-16 -.183E-14   0.480E-12 0.243E-11 0.333E-10

 POSITION                                       TOTAL-FORCE (eV/Angst)
      2.00994      2.00994     10.83028         0.000001      0.000001      0.000003
      6.06542      2.00994     10.83028        -0.000001      0.000001      0.000003
      2.00994      6.06542     10.83028         0.000001     -0.000001      0.000003
      6.06542      6.06542     10.83028        -0.000001     -0.000001      0.000003
      8.07536      0.00000      8.29158        -0.000000     -0.000000      0.000006
      4.03768      0.00000      8.30983        -0.000000     -0.000000      0.000002
      8.07536      4.03768      8.30983        -0.000000     -0.000000      0.000002
      4.03768      4.03768      8.32904        -0.000000     -0.000000     -0.000004
      8.07536      0.00000      4.45231        -0.000000     -0.000000     -0.000006
      4.03768      0.00000      4.43405        -0.000000     -0.000000     -0.000002
      8.07536      4.03768      4.43405        -0.000000     -0.000000     -0.000002
      4.03768      4.03768      4.41484        -0.000000     -0.000000      0.000004
      2.00994      2.00994      1.91361         0.000001      0.000001     -0.000003
      6.06542      2.00994      1.91361        -0.000001      0.000001     -0.000003
      2.00994      6.06542      1.91361         0.000001     -0.000001     -0.000003
      6.06542      6.06542      1.91361        -0.000001     -0.000001     -0.000003
      4.03768      0.00000      0.00000        -0.000000     -0.000000      0.000000
      8.07536      4.03768      0.00000        -0.000000     -0.000000     -0.000000
      4.03768      4.03768      0.00000        -0.000000     -0.000000     -0.000000
      2.00632      2.00632      6.37194         0.000004      0.000004      0.000000
      6.06905      2.00632      6.37194        -0.000004      0.000004      0.000000
      2.00632      6.06905      6.37194         0.000004     -0.000004     -0.000000
      6.06905      6.06905      6.37194        -0.000004     -0.000004      0.000000
      8.07536      2.01865      9.56797        -0.000000      0.000001      0.000003
      4.03768      2.01965      9.57258        -0.000000     -0.000006      0.000005
      8.07536      6.05671      9.56797        -0.000000     -0.000001      0.000003
      4.03768      6.05571      9.57258        -0.000000      0.000006      0.000005
      2.01865      0.00000      9.56797         0.000001     -0.000000      0.000003
      6.05671      0.00000      9.56797        -0.000001     -0.000000      0.000003
      2.01965      4.03768      9.57258        -0.000006     -0.000000      0.000005
      6.05571      4.03768      9.57258         0.000006     -0.000000      0.000005
      2.01865      0.00000      3.17591         0.000001     -0.000000     -0.000003
      6.05671      0.00000      3.17591        -0.000001     -0.000000     -0.000003
      2.01965      4.03768      3.17131        -0.000006     -0.000000     -0.000005
      6.05571      4.03768      3.17131         0.000006     -0.000000     -0.000005
      8.07536      2.01865      3.17591        -0.000000      0.000001     -0.000003
      4.03768      2.01965      3.17131        -0.000000     -0.000006     -0.000005
      8.07536      6.05671      3.17591        -0.000000     -0.000001     -0.000003
      4.03768      6.05571      3.17131        -0.000000      0.000006     -0.000005
      8.07536      0.00000      0.00000        -0.000000     -0.000000     -0.000000
    total drift:                                0.000000      0.000000     -0.000000

  FREE ENERGIE OF THE ION-ELECTRON SYSTEM (eV)
  free  energy   TOTEN  =      -207.55870390 eV

  energy  without entropy=     -207.55763343  energy(sigma->0) =     -207.55816866

 d Force = 0.2844968E-10[ 0.162E-10, 0.407E-10]  d Energy = 0.1091394E-09-0.807E-10
 d Force =-0.1427506E-03[-0.143E-03,-0.143E-03]  d Ewald  =-0.1427500E-03-0.564E-09

 Conjugate gradient step on ions:
 trial-energy change:   -0.000000  1 .order   -0.000000   -0.000000   -0.000000
  (g-gl).g = 0.128E-09      g.g   = 0.135E-09  gl.gl    = 0.613E-09
 g(Force)  = 0.135E-09   g(Stress)= 0.000E+00 ortho     = 0.243E-10
 gamma     =   0.20930
 trial     =   0.29019
 opt step  =   0.48230  (harmonic =   0.48230) maximal distance =0.00000059
 next E    =  -207.558704   (d E  =  -0.00000)

 reached required accuracy - stopping structural energy minimisation