 vasp.6.4.3 19Mar24 (build Apr 09 2025 20:43:19) complex

 executed on             LinuxIFC date 2025.04.15  08:05:13

 INCAR:
   PREC = Accurate
   IBRION = 2
   NSW = 100
   NELMIN = 5
   ISIF = 2
   ENCUT = 520
   EDIFF = 1.000000e-08
   EDIFFG = -1.000000e-5
   ISMEAR = 0
   SIGMA = 0.05
   IALGO = 38
   LREAL = .FALSE.
   ADDGRID = .TRUE.
   LWAVE = .FALSE.
   LCHARG = .FALSE.
   NCORE = 9

 POTCAR:    PAW_PBE Bi_d 06Sep2000
 POTCAR:    PAW_PBE Se 06Sep2000
 POTCAR:    PAW_PBE O 08Apr2002
 POTCAR:    PAW_PBE S 06Sep2000
 POTCAR:    PAW_PBE Bi_d 06Sep2000
   VRHFIN =Bi:

   TITEL  = PAW_PBE Bi_d 06Sep2000
   POMASS =  208.980; ZVAL   =   15.000    mass and valenz
   ENMAX  =  242.839; ENMIN  =  182.129 eV

   TITEL  = PAW_PBE Se 06Sep2000
   POMASS =   78.960; ZVAL   =    6.000    mass and valenz
   ENMAX  =  211.555; ENMIN  =  158.666 eV

   TITEL  = PAW_PBE O 08Apr2002
   POMASS =   16.000; ZVAL   =    6.000    mass and valenz
   ENMAX  =  400.000; ENMIN  =  300.000 eV

   TITEL  = PAW_PBE S 06Sep2000
   POMASS =   32.066; ZVAL   =    6.000    mass and valenz
   ENMAX  =  258.689; ENMIN  =  194.016 eV

  PAW_PBE Bi_d 06Sep2000                :
  PAW_PBE Se 06Sep2000                  :
  PAW_PBE O 08Apr2002                   :
  PAW_PBE S 06Sep2000                   :

 POSCAR: generated by phonopy
  positions in direct lattice
  velocities in cartesian coordinates

 exchange-correlation table for PE
   RHO(1)=    0.500       N(1)  =     2000
   RHO(2)=  100.500       N(2)  =     4000

 ion  position               nearest neighbor table
   1  0.249  0.249  0.851-  24 2.37  28 2.37  25 2.38  30 2.38  13 3.79   8 3.80   6 3.80   7 3.80
                             5 3.80
   2  0.751  0.249  0.851-  29 2.37  24 2.37  25 2.38  31 2.38  14 3.79   8 3.80   6 3.80   7 3.80
                             5 3.80
   3  0.249  0.751  0.851-  26 2.37  28 2.37  30 2.38  27 2.38  15 3.79   8 3.80   7 3.80   6 3.80
                             5 3.80
   4  0.751  0.751  0.851-  26 2.37  29 2.37  27 2.38  31 2.38  16 3.79   8 3.80   6 3.80   7 3.80
                             5 3.80
   5  0.000  0.000  0.650-  24 2.38  26 2.38  28 2.38  29 2.38   1 3.80   2 3.80   3 3.80   4 3.80
                             9 3.81
   6  0.500  0.000  0.651-  28 2.37  29 2.37  25 2.38  27 2.38   2 3.80   1 3.80   4 3.80   3 3.80
                            10 3.84
   7  0.000  0.500  0.651-  24 2.37  26 2.37  30 2.38  31 2.38   3 3.80   1 3.80   4 3.80   2 3.80
                            11 3.84
   8  0.500  0.500  0.652-  25 2.37  27 2.37  30 2.37  31 2.37   4 3.80   3 3.80   2 3.80   1 3.80
                            12 3.87
   9  0.000  0.000  0.350-  32 2.38  33 2.38  36 2.38  38 2.38  13 3.80  14 3.80  15 3.80  16 3.80
                             5 3.81
  10  0.500  0.000  0.349-  32 2.37  33 2.37  37 2.38  39 2.38  14 3.80  16 3.80  13 3.80  15 3.80
                             6 3.84
  11  0.000  0.500  0.349-  36 2.37  38 2.37  34 2.38  35 2.38  15 3.80  16 3.80  13 3.80  14 3.80
                             7 3.84
  12  0.500  0.500  0.348-  34 2.37  35 2.37  37 2.37  39 2.37  16 3.80  15 3.80  14 3.80  13 3.80
                             8 3.87
  13  0.249  0.249  0.149-  32 2.37  36 2.37  34 2.38  37 2.38   1 3.79  12 3.80  11 3.80  10 3.80
                             9 3.80
  14  0.751  0.249  0.149-  33 2.37  36 2.37  37 2.38  35 2.38   2 3.79  12 3.80  10 3.80  11 3.80
                             9 3.80
  15  0.249  0.751  0.149-  38 2.37  32 2.37  34 2.38  39 2.38   3 3.79  12 3.80  11 3.80  10 3.80
                             9 3.80
  16  0.751  0.751  0.149-  33 2.37  38 2.37  35 2.38  39 2.38   4 3.79  12 3.80  11 3.80  10 3.80
                             9 3.80
  17  0.500  0.000  0.000-
  18  0.000  0.500  0.000-
  19  0.500  0.500  0.000-
  20  0.249  0.249  0.500-
  21  0.751  0.249  0.500-
  22  0.249  0.751  0.500-
  23  0.751  0.751  0.500-
  24  0.000  0.250  0.751-   1 2.37   2 2.37   7 2.37   5 2.38
  25  0.500  0.250  0.751-   8 2.37   6 2.38   2 2.38   1 2.38
  26  0.000  0.750  0.751-   3 2.37   4 2.37   7 2.37   5 2.38
  27  0.500  0.750  0.751-   8 2.37   6 2.38   4 2.38   3 2.38
  28  0.250  0.000  0.751-   1 2.37   3 2.37   6 2.37   5 2.38
  29  0.750  0.000  0.751-   2 2.37   4 2.37   6 2.37   5 2.38
  30  0.250  0.500  0.751-   8 2.37   7 2.38   3 2.38   1 2.38
  31  0.750  0.500  0.751-   8 2.37   7 2.38   4 2.38   2 2.38
  32  0.250  0.000  0.249-  13 2.37  15 2.37  10 2.37   9 2.38
  33  0.750  0.000  0.249-  14 2.37  16 2.37  10 2.37   9 2.38
  34  0.250  0.500  0.249-  12 2.37  11 2.38  15 2.38  13 2.38
  35  0.750  0.500  0.249-  12 2.37  11 2.38  16 2.38  14 2.38
  36  0.000  0.250  0.249-  13 2.37  14 2.37  11 2.37   9 2.38
  37  0.500  0.250  0.249-  12 2.37  10 2.38  14 2.38  13 2.38
  38  0.000  0.750  0.249-  15 2.37  16 2.37  11 2.37   9 2.38
  39  0.500  0.750  0.249-  12 2.37  10 2.38  16 2.38  15 2.38
  40  0.000  0.000  0.000-

  LATTYP: Found a simple tetragonal cell.
 ALAT       =     8.0361630249
 C/A-ratio  =     1.5781187256

  Lattice vectors:

 A1 = (   8.0361630249,   0.0000000000,   0.0000000000)
 A2 = (   0.0000000000,   8.0361630249,   0.0000000000)
 A3 = (   0.0000000000,   0.0000000000,  12.6820193516)

Analysis of symmetry for initial positions (statically):
 Subroutine PRICEL returns:
 Original cell was already a primitive cell.

 Routine SETGRP: Setting up the symmetry group for a
 simple tetragonal supercell.

 Subroutine GETGRP returns: Found 16 space group operations
 (whereof 16 operations were pure point group operations)
 out of a pool of 16 trial point group operations.

The static configuration has the point symmetry D_4h.

Analysis of symmetry for dynamics (positions and initial velocities):
 Subroutine PRICEL returns:
 Original cell was already a primitive cell.

 Routine SETGRP: Setting up the symmetry group for a
 simple tetragonal supercell.

 Subroutine GETGRP returns: Found 16 space group operations
 (whereof 16 operations were pure point group operations)
 out of a pool of 16 trial point group operations.

The dynamic configuration has the point symmetry D_4h.

 Subroutine INISYM returns: Found 16 space group operations
 (whereof 16 operations are pure point group operations),
 and found     1 'primitive' translations

                                     Primitive cell

  volume of cell :     819.0037

  direct lattice vectors                    reciprocal lattice vectors
     8.036163025  0.000000000  0.000000000     0.124437495  0.000000000  0.000000000
     0.000000000  8.036163025  0.000000000     0.000000000  0.124437495  0.000000000
     0.000000000  0.000000000 12.682019352     0.000000000  0.000000000  0.078851796

  length of vectors
     8.036163025  8.036163025 12.682019352     0.124437495  0.124437495  0.078851796

  position of ions in fractional coordinates (direct lattice)
     0.248979534  0.248979534  0.850574274
     0.751020466  0.248979534  0.850574274
     0.248979534  0.751020466  0.850574274
     0.751020466  0.751020466  0.850574274
     0.000000000  0.000000000  0.650198539
     0.500000000  0.000000000  0.651247841
     0.000000000  0.500000000  0.651247841
     0.500000000  0.500000000  0.652407468
     0.000000000  0.000000000  0.349801461
     0.500000000  0.000000000  0.348752159
     0.000000000  0.500000000  0.348752159
     0.500000000  0.500000000  0.347592532
     0.248979534  0.248979534  0.149425726
     0.751020466  0.248979534  0.149425726
     0.248979534  0.751020466  0.149425726
     0.751020466  0.751020466  0.149425726
     0.500000000  0.000000000  0.000000000
     0.000000000  0.500000000  0.000000000
     0.500000000  0.500000000  0.000000000
     0.249222732  0.249222732  0.500000000
     0.750777268  0.249222732  0.500000000
     0.249222732  0.750777268  0.500000000
     0.750777268  0.750777268  0.500000000
     0.000000000  0.249790648  0.750685596
     0.500000000  0.249925155  0.751201145
     0.000000000  0.750209352  0.750685596
     0.500000000  0.750074845  0.751201145
     0.249790648  0.000000000  0.750685596
     0.750209352  0.000000000  0.750685596
     0.249925155  0.500000000  0.751201145
     0.750074845  0.500000000  0.751201145
     0.249790648  0.000000000  0.249314404
     0.750209352  0.000000000  0.249314404
     0.249925155  0.500000000  0.248798855
     0.750074845  0.500000000  0.248798855
     0.000000000  0.249790648  0.249314404
     0.500000000  0.249925155  0.248798855
     0.000000000  0.750209352  0.249314404
     0.500000000  0.750074845  0.248798855
     0.000000000  0.000000000  0.000000000

  ion indices of the primitive-cell ions
   primitive index   ion index
                 1           1
                 2           2
                 3           3
                 4           4
                 5           5
                 6           6
                 7           7
                 8           8
                 9           9
                10          10
                11          11
                12          12
                13          13
                14          14
                15          15
                16          16
                17          17
                18          18
                19          19
                20          20
                21          21
                22          22
                23          23
                24          24
                25          25
                26          26
                27          27
                28          28
                29          29
                30          30
                31          31
                32          32
                33          33
                34          34
                35          35
                36          36
                37          37
                38          38
                39          39
                40          40

 KPOINTS: K-Spacing Value to Generate K-Mesh: 0.03

Automatic generation of k-mesh.
 Grid dimensions read from file:
 generate k-points for:    4    4    3

 Generating k-lattice:

  Cartesian coordinates                     Fractional coordinates (reciprocal lattice)
     0.031109374  0.000000000  0.000000000     0.250000000  0.000000000  0.000000000
     0.000000000  0.031109374  0.000000000     0.000000000  0.250000000  0.000000000
     0.000000000  0.000000000  0.026283932     0.000000000  0.000000000  0.333333333

  Length of vectors
     0.031109374  0.031109374  0.026283932

  Shift w.r.t. Gamma in fractional coordinates (k-lattice)
     0.000000000  0.000000000  0.000000000

 Subroutine IBZKPT returns following result:

 Found     12 irreducible k-points:

 Following reciprocal coordinates:
            Coordinates               Weight
  0.000000  0.000000  0.000000      1.000000
  0.250000  0.000000  0.000000      4.000000
  0.500000  0.000000  0.000000      2.000000
  0.250000  0.250000  0.000000      4.000000
  0.500000  0.250000  0.000000      4.000000
  0.500000  0.500000  0.000000      1.000000
  0.000000  0.000000  0.333333      2.000000
  0.250000  0.000000  0.333333      8.000000
  0.500000  0.000000  0.333333      4.000000
[...]
 next E    =  -207.947059   (d E  =  -0.00000)

[...]

 d Force =-0.3456059E-10[-0.105E-09, 0.355E-10]  d Energy =-0.1331500E-08 0.130E-08
 d Force = 0.4948574E-03[ 0.495E-03, 0.495E-03]  d Ewald  = 0.4948576E-03-0.153E-09

--------------------------------------- Ionic step        4  -------------------------------------------

[...]

 eigenvalue-minimisations  :  3200
 total energy-change (2. order) : 0.1058652E-08  (-0.8574778E-11)
 number of electron     384.0000007 magnetization
 augmentation part       94.9966287 magnetization

[...]

 Broyden mixing:
  rms(total) = 0.28136E-06    rms(broyden)= 0.28130E-06
  rms(prec ) = 0.32554E-06
  weight for this iteration     100.00

 eigenvalues of (default mixing * dielectric matrix)
  average eigenvalue GAMMA=   1.0187
  1.3186  1.3186  0.4187

[...]

--------------------------------------- Iteration      4(   5)  ---------------------------------------

 eigenvalue-minimisations  :  3184
 total energy-change (2. order) :-0.2528395E-09  (-0.2088757E-11)
 number of electron     384.0000007 magnetization
 augmentation part       94.9966288 magnetization

 Free energy of the ion-electron system (eV)
  alpha Z        PSCENC =      1233.39627715
  Ewald energy   TEWEN  =    -28377.81824659
  -Hartree energ DENC   =    -12222.44597480
  -exchange      EXHF   =         0.00000000
  -V(xc)+E(xc)   XCENC  =      1244.72515503
  PAW double counting   =     35736.39062046   -35127.26532472
  entropy T*S    EENTRO =        -0.00035946
  eigenvalues    EBANDS =     -3036.58105167
  atomic energy  EATOM  =     40341.65184589
  Solvation  Ediel_sol  =         0.00000000
  free energy    TOTEN  =      -207.94705871 eV

  energy without entropy =     -207.94669925  energy(sigma->0) =     -207.94687898

 average (electrostatic) potential at core
  the test charge radii are     1.0856  1.0808  0.7215  0.9698
  (the norm of the test charge is              1.0000)
       1-105.6992       2-105.6992       3-105.6992       4-105.6992       5-105.6868
       6-105.6952       7-105.6952       8-105.6906       9-105.6868      10-105.6952
      11-105.6952      12-105.6906      13-105.6992      14-105.6992      15-105.6992
      16-105.6992      17 -51.3431      18 -51.3431      19 -51.3075      20 -51.3219
      21 -51.3219      22 -51.3219      23 -51.3219      24 -69.7018      25 -69.6940
      26 -69.7018      27 -69.6940      28 -69.7018      29 -69.7018      30 -69.6940
      31 -69.6940      32 -69.7018      33 -69.7018      34 -69.6940      35 -69.6940
      36 -69.7018      37 -69.6940      38 -69.7018      39 -69.6940      40 -84.4228

 E-fermi :   5.7383     XC(G=0): -10.1234     alpha+bet :-11.1800

 val. band max:        5.6547501019   @ k =   0.0000   0.0000   0.3333
 cond. band min:       5.7960223682   @ k =   0.0000   0.0000   0.0000
 fundamental gap:      0.1412722663
 Fermi energy:         5.7382522099

[...]

 k-point    12 :       0.5000    0.5000    0.3333
  band No.  band energies     occupation
      1     -17.6375      2.00000
      2     -17.6367      2.00000
      3     -17.6367      2.00000
      4     -17.6364      2.00000
      5     -17.6353      2.00000
      6     -17.6345      2.00000
      7     -17.6345      2.00000
      8     -17.6343      2.00000
      9     -17.5677      2.00000
     10     -17.5646      2.00000
     11     -17.5640      2.00000
     12     -17.5640      2.00000
     13     -17.5636      2.00000
     14     -17.5606      2.00000
     15     -17.5597      2.00000
     16     -17.5597      2.00000
     17     -17.5248      2.00000
     18     -17.5248      2.00000
     19     -17.5247      2.00000
     20     -17.5240      2.00000
     21     -17.5165      2.00000
     22     -17.5165      2.00000
     23     -17.5133      2.00000
     24     -17.5129      2.00000
     25     -17.5003      2.00000
     26     -17.5001      2.00000
     27     -17.5001      2.00000
     28     -17.4994      2.00000
     29     -17.4973      2.00000
     30     -17.4973      2.00000
     31     -17.4971      2.00000
     32     -17.4965      2.00000
     33     -17.4963      2.00000
     34     -17.4956      2.00000
     35     -17.4956      2.00000
     36     -17.4955      2.00000
     37     -17.4947      2.00000
     38     -17.4940      2.00000
     39     -17.4940      2.00000
     40     -17.4933      2.00000
     41     -17.4878      2.00000
     42     -17.4874      2.00000
     43     -17.4874      2.00000
     44     -17.4867      2.00000
     45     -17.4839      2.00000
     46     -17.4839      2.00000
     47     -17.4818      2.00000
     48     -17.4786      2.00000
     49     -17.4768      2.00000
     50     -17.4768      2.00000
     51     -17.4761      2.00000
     52     -17.4761      2.00000
     53     -17.4750      2.00000
     54     -17.4750      2.00000
     55     -17.4745      2.00000
     56     -17.4737      2.00000
     57     -17.4735      2.00000
     58     -17.4735      2.00000
     59     -17.4735      2.00000
     60     -17.4734      2.00000
[...]
    218       9.3833      0.00000
    219       9.3931      0.00000
    220       9.3996      0.00000
    221       9.5079      0.00000
    222       9.5079      0.00000
    223       9.5102      0.00000
    224       9.5280      0.00000
    225      10.0880      0.00000
    226      10.0881      0.00000
    227      10.1260      0.00000
    228      10.1575      0.00000
    229      10.1649      0.00000
    230      10.2052      0.00000
    231      10.2071      0.00000
    232      10.2101      0.00000

 soft charge-density along one line, spin component           1
         0         1         2         3         4         5         6         7         8         9
 total charge-density along one line

------------------------ aborting loop because EDIFF is reached ----------------------------------------

  FORCE on cell =-STRESS in cart. coord.  units (eV):
  Direction    XX          YY          ZZ          XY          YZ          ZX
  Alpha Z  1233.39628  1233.39628  1233.39628
  Ewald   -7322.87064 -7322.87064-13732.18993    -0.00000    -0.00000    -0.00000
  Hartree  5914.27042  5914.27042   393.90512    -0.00000    -0.00000    -0.00000
  E(xc)   -1819.90552 -1819.90552 -1822.08684    -0.00000     0.00000    -0.00000
  Local   -6689.01659 -6689.01659  5244.11061     0.00000    -0.00000     0.00000
  n-local  1564.84509  1574.25466  1570.92005     0.29869    -0.05676     0.09014
  augment  2176.21614  2176.21614  2161.62951    -0.00000     0.00000     0.00000
  Kinetic  4906.20265  4915.72976  4929.94816    -3.15628     0.42929    -0.46134
  Fock        0.00000     0.00000     0.00000     0.00000     0.00000     0.00000
  Total     -27.39383   -27.39383   -20.36703     0.00000     0.00000     0.00000
  in kB     -53.58922   -53.58922   -39.84304     0.00000     0.00000     0.00000

 VOLUME and BASIS-vectors are now :
  energy-cutoff  :      520.00
  volume of cell :      819.00
      direct lattice vectors                 reciprocal lattice vectors
     8.036163025  0.000000000  0.000000000     0.124437495  0.000000000  0.000000000
     0.000000000  8.036163025  0.000000000     0.000000000  0.124437495  0.000000000
     0.000000000  0.000000000 12.682019352     0.000000000  0.000000000  0.078851796

  length of vectors
     8.036163025  8.036163025 12.682019352     0.124437495  0.124437495  0.078851796

 FORCES acting on ions
    electron-ion (+dipol)            ewald-force                    non-local-force                 convergence-correction
   -.525E+01 -.525E+01 -.451E+03   0.519E+01 0.519E+01 0.461E+03   0.611E-01 0.611E-01 -.103E+02   0.919E-07 0.918E-07 0.116E-06
   0.525E+01 -.525E+01 -.451E+03   -.519E+01 0.519E+01 0.461E+03   -.611E-01 0.611E-01 -.103E+02   -.919E-07 0.918E-07 0.116E-06
   -.525E+01 0.525E+01 -.451E+03   0.519E+01 -.519E+01 0.461E+03   0.611E-01 -.611E-01 -.103E+02   0.918E-07 -.918E-07 0.116E-06
   0.525E+01 0.525E+01 -.451E+03   -.519E+01 -.519E+01 0.461E+03   -.611E-01 -.611E-01 -.103E+02   -.918E-07 -.918E-07 0.116E-06
   0.620E-12 -.545E-12 0.477E+03   -.142E-13 -.284E-13 -.487E+03   -.345E-18 -.285E-18 0.989E+01   -.140E-11 -.264E-11 0.363E-05
   0.147E-11 0.189E-11 0.480E+03   0.000E+00 0.604E-13 -.490E+03   0.301E-18 0.140E-18 0.101E+02   0.104E-11 0.226E-11 0.592E-06
   0.202E-11 -.721E-11 0.480E+03   0.853E-13 -.568E-13 -.490E+03   -.194E-19 -.403E-18 0.101E+02   0.151E-12 0.516E-11 0.592E-06
   0.143E-11 -.518E-11 0.483E+03   0.711E-13 0.977E-13 -.493E+03   0.121E-17 0.194E-18 0.104E+02   -.698E-12 -.111E-11 -.262E-05
   0.193E-11 -.153E-10 -.477E+03   -.284E-13 0.000E+00 0.487E+03   0.552E-18 -.189E-18 -.989E+01   0.631E-11 -.401E-11 -.363E-05
   0.144E-11 0.309E-11 -.480E+03   0.853E-13 -.959E-13 0.490E+03   0.256E-18 -.171E-18 -.101E+02   -.664E-11 -.345E-11 -.592E-06
   0.558E-12 0.309E-11 -.480E+03   -.995E-13 0.142E-12 0.490E+03   -.176E-18 -.701E-19 -.101E+02   0.771E-11 0.420E-11 -.592E-06
   0.139E-11 -.557E-11 -.483E+03   0.426E-13 0.142E-13 0.493E+03   -.543E-18 0.109E-18 -.104E+02   -.787E-11 0.306E-11 0.262E-05
   -.525E+01 -.525E+01 0.451E+03   0.519E+01 0.519E+01 -.461E+03   0.611E-01 0.611E-01 0.103E+02   0.918E-07 0.918E-07 -.116E-06
   0.525E+01 -.525E+01 0.451E+03   -.519E+01 0.519E+01 -.461E+03   -.611E-01 0.611E-01 0.103E+02   -.918E-07 0.918E-07 -.116E-06
   -.525E+01 0.525E+01 0.451E+03   0.519E+01 -.519E+01 -.461E+03   0.611E-01 -.611E-01 0.103E+02   0.918E-07 -.918E-07 -.116E-06
   0.525E+01 0.525E+01 0.451E+03   -.519E+01 -.519E+01 -.461E+03   -.611E-01 -.611E-01 0.103E+02   -.918E-07 -.918E-07 -.116E-06
   0.111E-11 0.101E-11 0.287E-12   -.568E-13 0.426E-13 0.140E-11   0.572E-27 -.594E-26 -.149E-26   0.291E-11 0.213E-11 -.339E-11
   0.108E-11 0.710E-11 0.714E-11   0.568E-13 -.568E-13 0.153E-11   0.715E-26 0.136E-26 -.365E-26   0.368E-12 -.232E-11 -.173E-11
   0.109E-11 -.489E-12 -.242E-11   0.000E+00 0.142E-13 0.144E-11   0.552E-26 0.733E-26 0.342E-28   -.400E-12 -.211E-11 -.278E-11
   -.339E+01 -.339E+01 0.194E-06   0.340E+01 0.340E+01 -.134E-10   -.159E-01 -.159E-01 0.997E-21   0.566E-06 0.566E-06 0.219E-11
   0.339E+01 -.339E+01 0.444E-11   -.340E+01 0.340E+01 -.134E-10   0.159E-01 -.159E-01 0.168E-20   -.566E-06 0.566E-06 0.571E-11
   -.339E+01 0.339E+01 0.487E-11   0.340E+01 -.340E+01 -.134E-10   -.159E-01 0.159E-01 -.141E-19   0.566E-06 -.566E-06 0.190E-11
   0.339E+01 0.339E+01 -.194E-06   -.340E+01 -.340E+01 -.134E-10   0.159E-01 0.159E-01 0.141E-19   -.566E-06 -.566E-06 0.355E-11
   0.334E-11 -.132E+01 0.788E+01   -.426E-13 0.123E+01 -.807E+01   0.427E-19 0.929E-01 0.195E+00   -.104E-11 -.131E-05 -.464E-06
   0.315E-11 -.717E+00 0.411E+01   -.568E-13 0.609E+00 -.392E+01   -.225E-18 0.108E+00 -.196E+00   0.869E-12 -.147E-05 0.168E-05
   0.335E-11 0.132E+01 0.788E+01   0.000E+00 -.123E+01 -.807E+01   -.176E-18 -.929E-01 0.195E+00   -.121E-11 0.131E-05 -.464E-06
   0.316E-11 0.717E+00 0.411E+01   0.284E-13 -.609E+00 -.392E+01   -.290E-18 -.108E+00 -.196E+00   0.102E-11 0.147E-05 0.168E-05
   -.132E+01 0.397E-11 0.788E+01   0.123E+01 -.178E-13 -.807E+01   0.929E-01 -.125E-18 0.195E+00   -.131E-05 -.109E-12 -.464E-06
   0.132E+01 0.359E-12 0.788E+01   -.123E+01 -.284E-13 -.807E+01   -.929E-01 0.358E-18 0.195E+00   0.131E-05 0.858E-12 -.464E-06
   -.717E+00 0.608E-11 0.411E+01   0.609E+00 -.462E-13 -.392E+01   0.108E+00 0.841E-19 -.196E+00   -.147E-05 -.141E-11 0.168E-05
   0.717E+00 0.152E-11 0.411E+01   -.609E+00 -.568E-13 -.392E+01   -.108E+00 -.338E-18 -.196E+00   0.147E-05 0.158E-12 0.168E-05
   -.132E+01 0.548E-11 -.788E+01   0.123E+01 0.284E-13 0.807E+01   0.929E-01 0.162E-18 -.195E+00   -.131E-05 -.493E-12 0.464E-06
   0.132E+01 0.204E-11 -.788E+01   -.123E+01 0.426E-13 0.807E+01   -.929E-01 -.334E-18 -.195E+00   0.131E-05 -.163E-11 0.464E-06
   -.717E+00 0.516E-11 -.411E+01   0.609E+00 -.213E-13 0.392E+01   0.108E+00 -.286E-19 0.196E+00   -.147E-05 -.186E-13 -.168E-05
   0.717E+00 0.637E-11 -.411E+01   -.609E+00 0.000E+00 0.392E+01   -.108E+00 -.119E-18 0.196E+00   0.147E-05 0.128E-11 -.168E-05
   0.338E-11 -.132E+01 -.788E+01   0.000E+00 0.123E+01 0.807E+01   -.746E-19 0.929E-01 -.195E+00   0.394E-11 -.131E-05 0.464E-06
   0.313E-11 -.717E+00 -.411E+01   -.284E-13 0.609E+00 0.392E+01   0.161E-18 0.108E+00 0.196E+00   -.400E-11 -.147E-05 -.168E-05
   0.288E-11 0.132E+01 -.788E+01   0.142E-13 -.123E+01 0.807E+01   0.167E-18 -.929E-01 -.195E+00   0.303E-11 0.131E-05 0.464E-06
   0.315E-11 0.717E+00 -.411E+01   0.000E+00 -.609E+00 0.392E+01   0.262E-18 -.108E+00 0.196E+00   -.305E-11 0.147E-05 -.168E-05
   0.111E-11 -.672E-11 0.846E-11   -.568E-13 0.000E+00 0.113E-11   0.286E-26 0.670E-27 -.179E-25   -.311E-11 0.185E-11 -.190E-11
   0.230E-09 0.206E-09 0.334E-09   0.171E-12 -.107E-12 -.124E-12   0.144E-16 -.139E-16 -.358E-14   -.142E-11 0.174E-11 -.174E-10

 POSITION                                       TOTAL-FORCE (eV/Angst)
      2.00084      2.00084     10.78700        -0.000001     -0.000001      0.000001
      6.03532      2.00084     10.78700         0.000001     -0.000001      0.000001
      2.00084      6.03532     10.78700        -0.000001      0.000001      0.000001
      6.03532      6.03532     10.78700         0.000001      0.000001      0.000001
      0.00000      8.03616      8.24583         0.000000     -0.000000     -0.000007
      4.01808      8.03616      8.25914         0.000000     -0.000000     -0.000008
      8.03616      4.01808      8.25914         0.000000     -0.000000     -0.000008
      4.01808      4.01808      8.27385         0.000000     -0.000000     -0.000006
      8.03616      8.03616      4.43619         0.000000     -0.000000      0.000007
      4.01808      8.03616      4.42288         0.000000     -0.000000      0.000008
      0.00000      4.01808      4.42288         0.000000     -0.000000      0.000008
      4.01808      4.01808      4.40817         0.000000     -0.000000      0.000006
      2.00084      2.00084      1.89502        -0.000001     -0.000001     -0.000001
      6.03532      2.00084      1.89502         0.000001     -0.000001     -0.000001
      2.00084      6.03532      1.89502        -0.000001      0.000001     -0.000001
      6.03532      6.03532      1.89502         0.000001      0.000001     -0.000001
      4.01808      0.00000     12.68202         0.000000     -0.000000     -0.000000
      8.03616      4.01808     12.68202         0.000000     -0.000000     -0.000000
      4.01808      4.01808     12.68202         0.000000     -0.000000     -0.000000
      2.00279      2.00279      6.34101        -0.000005     -0.000005     -0.000000
      6.03337      2.00279      6.34101         0.000005     -0.000005     -0.000000
      2.00279      6.03337      6.34101        -0.000005      0.000005     -0.000000
      6.03337      6.03337      6.34101         0.000005      0.000005     -0.000000
      8.03616      2.00736      9.52021         0.000000      0.000002      0.000004
      4.01808      2.00844      9.52675         0.000000      0.000002     -0.000001
      8.03616      6.02880      9.52021         0.000000     -0.000002      0.000004
      4.01808      6.02772      9.52675         0.000000     -0.000002     -0.000001
      2.00736      8.03616      9.52021         0.000002     -0.000000      0.000004
      6.02880      0.00000      9.52021        -0.000002     -0.000000      0.000004
      2.00844      4.01808      9.52675         0.000002     -0.000000     -0.000001
      6.02772      4.01808      9.52675        -0.000002     -0.000000     -0.000001
      2.00736      0.00000      3.16181         0.000002     -0.000000     -0.000004
      6.02880      8.03616      3.16181        -0.000002     -0.000000     -0.000004
      2.00844      4.01808      3.15527         0.000002     -0.000000      0.000001
      6.02772      4.01808      3.15527        -0.000002     -0.000000      0.000001
      8.03616      2.00736      3.16181         0.000000      0.000002     -0.000004
      4.01808      2.00844      3.15527         0.000000      0.000002      0.000001
      0.00000      6.02880      3.16181         0.000000     -0.000002     -0.000004
      4.01808      6.02772      3.15527         0.000000     -0.000002      0.000001
      8.03616      8.03616     12.68202         0.000000     -0.000000     -0.000000
    total drift:                                0.000000      0.000000      0.000000

  FREE ENERGIE OF THE ION-ELECTRON SYSTEM (eV)
  free  energy   TOTEN  =      -207.94705871 eV

  energy  without entropy=     -207.94669925  energy(sigma->0) =     -207.94687898

 d Force = 0.4000456E-10[ 0.190E-11, 0.781E-10]  d Energy = 0.3037712E-09-0.264E-09
 d Force =-0.3695208E-03[-0.370E-03,-0.370E-03]  d Ewald  =-0.3695214E-03 0.637E-09

 reached required accuracy - stopping structural energy minimisation