 vasp.6.4.3 19Mar24 (build Apr 09 2025 20:43:19) complex

 executed on             LinuxIFC date 2025.04.13  08:23:16

 INCAR:
   PREC = Accurate
   IBRION = 2
   NSW = 100
   NELMIN = 5
   ISIF = 2
   ENCUT = 520
   EDIFF = 1.000000e-08
   EDIFFG = -1.000000e-5
   ISMEAR = 0
   SIGMA = 0.05
   IALGO = 38
   LREAL = .FALSE.
   ADDGRID = .TRUE.
   LWAVE = .FALSE.
   LCHARG = .FALSE.
   NCORE = 9

 POTCAR:    PAW_PBE Bi_d 06Sep2000
 POTCAR:    PAW_PBE Se 06Sep2000
 POTCAR:    PAW_PBE O 08Apr2002
 POTCAR:    PAW_PBE S 06Sep2000
 POTCAR:    PAW_PBE Bi_d 06Sep2000
   VRHFIN =Bi:

   TITEL  = PAW_PBE Bi_d 06Sep2000
   POMASS =  208.980; ZVAL   =   15.000    mass and valenz
   ENMAX  =  242.839; ENMIN  =  182.129 eV

   TITEL  = PAW_PBE Se 06Sep2000
   POMASS =   78.960; ZVAL   =    6.000    mass and valenz
   ENMAX  =  211.555; ENMIN  =  158.666 eV

   TITEL  = PAW_PBE O 08Apr2002
   POMASS =   16.000; ZVAL   =    6.000    mass and valenz
   ENMAX  =  400.000; ENMIN  =  300.000 eV

   TITEL  = PAW_PBE S 06Sep2000
   POMASS =   32.066; ZVAL   =    6.000    mass and valenz
   ENMAX  =  258.689; ENMIN  =  194.016 eV

  PAW_PBE Bi_d 06Sep2000                :
  PAW_PBE Se 06Sep2000                  :
  PAW_PBE O 08Apr2002                   :
  PAW_PBE S 06Sep2000                   :

 POSCAR: generated by phonopy
  positions in direct lattice
  velocities in cartesian coordinates

 exchange-correlation table for PE
   RHO(1)=    0.500       N(1)  =     2000
   RHO(2)=  100.500       N(2)  =     4000

 ion  position               nearest neighbor table
   1  0.249  0.249  0.856-  24 2.32  28 2.32  25 2.32  30 2.32  40 3.23  18 3.24  17 3.24  19 3.25
                            13 3.50   5 3.75   7 3.75   6 3.75   8 3.75   3 3.84   2 3.84   3 3.88
   2  0.751  0.249  0.856-  24 2.32  29 2.32  25 2.32  31 2.32  40 3.23  18 3.24  17 3.24  19 3.25
                            14 3.50   5 3.75   7 3.75   6 3.75   8 3.75   4 3.84   1 3.84   4 3.88
   3  0.249  0.751  0.856-  26 2.32  28 2.32  27 2.32  30 2.32  40 3.23  18 3.24  17 3.24  19 3.25
                            15 3.50   5 3.75   7 3.75   6 3.75   8 3.75   4 3.84   1 3.84   4 3.88
   4  0.751  0.751  0.856-  26 2.32  29 2.32  27 2.32  31 2.32  40 3.23  18 3.24  17 3.24  19 3.25
                            16 3.50   5 3.75   7 3.75   6 3.75   8 3.75   3 3.84   2 3.84   2 3.88
   5  0.000  0.000  0.645-  24 2.32  26 2.32  28 2.32  29 2.32  20 3.25  21 3.25  22 3.25  23 3.25
                             9 3.52   2 3.75   3 3.75   4 3.75   1 3.75   7 3.86   6 3.86   7 3.86
   6  0.500  0.000  0.645-  28 2.32  29 2.32  25 2.32  27 2.32  20 3.25  21 3.25  22 3.25  23 3.25
                            10 3.54   2 3.75   3 3.75   4 3.75   1 3.75   5 3.86   5 3.86   8 3.86
   7  0.000  0.500  0.645-  24 2.32  26 2.32  30 2.32  31 2.32  20 3.25  21 3.25  22 3.25  23 3.25
                            11 3.54   2 3.75   3 3.75   4 3.75   1 3.75   5 3.86   5 3.86   8 3.86
   8  0.500  0.500  0.646-  25 2.32  27 2.32  30 2.32  31 2.32  20 3.26  21 3.26  22 3.26  23 3.26
                            12 3.57   2 3.75   3 3.75   4 3.75   1 3.75   7 3.86   6 3.86   6 3.86
   9  0.000  0.000  0.355-  32 2.32  33 2.32  36 2.32  38 2.32  20 3.25  21 3.25  22 3.25  23 3.25
                             5 3.52  13 3.75  14 3.75  15 3.75  16 3.75  10 3.86  11 3.86  11 3.86
  10  0.500  0.000  0.355-  32 2.32  33 2.32  37 2.32  39 2.32  20 3.25  21 3.25  22 3.25  23 3.25
                             6 3.54  13 3.75  14 3.75  15 3.75  16 3.75   9 3.86   9 3.86  12 3.86
  11  0.000  0.500  0.355-  36 2.32  38 2.32  34 2.32  35 2.32  20 3.25  21 3.25  22 3.25  23 3.25
                             7 3.54  13 3.75  14 3.75  15 3.75  16 3.75   9 3.86   9 3.86  12 3.86
  12  0.500  0.500  0.354-  34 2.32  35 2.32  37 2.32  39 2.32  20 3.26  21 3.26  22 3.26  23 3.26
                             8 3.57  13 3.75  14 3.75  15 3.75  16 3.75  10 3.86  11 3.86  10 3.86
  13  0.249  0.249  0.144-  32 2.32  36 2.32  34 2.32  37 2.32  40 3.23  18 3.24  17 3.24  19 3.25
                             1 3.50   9 3.75  10 3.75  11 3.75  12 3.75  14 3.84  15 3.84  15 3.88
  14  0.751  0.249  0.144-  33 2.32  36 2.32  35 2.32  37 2.32  40 3.23  18 3.24  17 3.24  19 3.25
                             2 3.50   9 3.75  10 3.75  11 3.75  12 3.75  13 3.84  16 3.84  16 3.88
  15  0.249  0.751  0.144-  32 2.32  38 2.32  34 2.32  39 2.32  40 3.23  18 3.24  17 3.24  19 3.25
                             3 3.50   9 3.75  10 3.75  11 3.75  12 3.75  13 3.84  16 3.84  16 3.88
  16  0.751  0.751  0.144-  33 2.32  38 2.32  35 2.32  39 2.32  40 3.23  18 3.24  17 3.24  19 3.25
                             4 3.50   9 3.75  10 3.75  11 3.75  12 3.75  14 3.84  15 3.84  14 3.88
  17  0.500  0.000  0.000-   1 3.24   2 3.24   3 3.24   4 3.24  13 3.24  14 3.24  15 3.24  16 3.24

  18  0.000  0.500  0.000-   1 3.24   2 3.24   3 3.24   4 3.24  13 3.24  14 3.24  15 3.24  16 3.24

[...]

  24  0.000  0.249  0.750-   1 2.32   2 2.32   5 2.32   7 2.32
  25  0.500  0.250  0.751-   8 2.32   6 2.32   1 2.32   2 2.32
  26  0.000  0.751  0.750-   3 2.32   4 2.32   5 2.32   7 2.32
  27  0.500  0.750  0.751-   8 2.32   6 2.32   3 2.32   4 2.32
  28  0.249  0.000  0.750-   1 2.32   3 2.32   5 2.32   6 2.32
  29  0.751  0.000  0.750-   2 2.32   4 2.32   5 2.32   6 2.32
  30  0.250  0.500  0.751-   8 2.32   7 2.32   1 2.32   3 2.32
  31  0.750  0.500  0.751-   8 2.32   7 2.32   2 2.32   4 2.32
  32  0.249  0.000  0.250-  13 2.32  15 2.32   9 2.32  10 2.32
  33  0.751  0.000  0.250-  14 2.32  16 2.32   9 2.32  10 2.32
  34  0.250  0.500  0.249-  12 2.32  11 2.32  13 2.32  15 2.32
  35  0.750  0.500  0.249-  12 2.32  11 2.32  14 2.32  16 2.32
  36  0.000  0.249  0.250-  13 2.32  14 2.32   9 2.32  11 2.32
  37  0.500  0.250  0.249-  12 2.32  10 2.32  13 2.32  14 2.32
  38  0.000  0.751  0.250-  15 2.32  16 2.32   9 2.32  11 2.32
  39  0.500  0.750  0.249-  12 2.32  10 2.32  15 2.32  16 2.32
  40  0.000  0.000  0.000-   1 3.23   2 3.23   3 3.23   4 3.23  13 3.23  14 3.23  15 3.23  16 3.23

  LATTYP: Found a simple tetragonal cell.
 ALAT       =     7.7225566629
 C/A-ratio  =     1.5781187256

  Lattice vectors:

 A1 = (   7.7225566629,   0.0000000000,   0.0000000000)
 A2 = (   0.0000000000,   7.7225566629,   0.0000000000)
 A3 = (   0.0000000000,   0.0000000000,  12.1871112793)

Analysis of symmetry for initial positions (statically):
 Subroutine PRICEL returns:
 Original cell was already a primitive cell.

 Routine SETGRP: Setting up the symmetry group for a
 simple tetragonal supercell.

 Subroutine GETGRP returns: Found 16 space group operations
 (whereof 16 operations were pure point group operations)
 out of a pool of 16 trial point group operations.

The static configuration has the point symmetry D_4h.

Analysis of symmetry for dynamics (positions and initial velocities):
 Subroutine PRICEL returns:
 Original cell was already a primitive cell.

 Routine SETGRP: Setting up the symmetry group for a
 simple tetragonal supercell.

 Subroutine GETGRP returns: Found 16 space group operations
 (whereof 16 operations were pure point group operations)
 out of a pool of 16 trial point group operations.

The dynamic configuration has the point symmetry D_4h.

 Subroutine INISYM returns: Found 16 space group operations
 (whereof 16 operations are pure point group operations),
 and found     1 'primitive' translations

                                     Primitive cell

  volume of cell :     726.8135

  direct lattice vectors                    reciprocal lattice vectors
     7.722556663  0.000000000  0.000000000     0.129490795  0.000000000  0.000000000
     0.000000000  7.722556663  0.000000000     0.000000000  0.129490795  0.000000000
     0.000000000  0.000000000 12.187111279     0.000000000  0.000000000  0.082053899

  length of vectors
     7.722556663  7.722556663 12.187111279     0.129490795  0.129490795  0.082053899

  position of ions in fractional coordinates (direct lattice)
     0.248804894  0.248804894  0.856396661
     0.751195106  0.248804894  0.856396661
     0.248804894  0.751195106  0.856396661
     0.751195106  0.751195106  0.856396661
     0.000000000  0.000000000  0.644537356
     0.500000000  0.000000000  0.645382445
     0.000000000  0.500000000  0.645382445
     0.500000000  0.500000000  0.646316637
     0.000000000  0.000000000  0.355462644
     0.500000000  0.000000000  0.354617555
     0.000000000  0.500000000  0.354617555
     0.500000000  0.500000000  0.353683363
     0.248804894  0.248804894  0.143603339
     0.751195106  0.248804894  0.143603339
     0.248804894  0.751195106  0.143603339
     0.751195106  0.751195106  0.143603339
     0.500000000  0.000000000  0.000000000
     0.000000000  0.500000000  0.000000000
     0.500000000  0.500000000  0.000000000
     0.250335799  0.250335799  0.500000000
     0.749664201  0.250335799  0.500000000
     0.250335799  0.749664201  0.500000000
     0.749664201  0.749664201  0.500000000
     0.000000000  0.249456024  0.750357765
     0.500000000  0.249589853  0.751490073
     0.000000000  0.750543976  0.750357765
     0.500000000  0.750410147  0.751490073
     0.249456024  0.000000000  0.750357765
     0.750543976  0.000000000  0.750357765
     0.249589853  0.500000000  0.751490073
     0.750410147  0.500000000  0.751490073
     0.249456024  0.000000000  0.249642235
     0.750543976  0.000000000  0.249642235
     0.249589853  0.500000000  0.248509927
     0.750410147  0.500000000  0.248509927
     0.000000000  0.249456024  0.249642235
     0.500000000  0.249589853  0.248509927
     0.000000000  0.750543976  0.249642235
     0.500000000  0.750410147  0.248509927
     0.000000000  0.000000000  0.000000000

  ion indices of the primitive-cell ions
   primitive index   ion index
                 1           1
                 2           2
                 3           3
                 4           4
                 5           5
                 6           6
                 7           7
                 8           8
                 9           9
                10          10
                11          11
                12          12
                13          13
                14          14
                15          15
                16          16
                17          17
                18          18
                19          19
                20          20
                21          21
                22          22
                23          23
                24          24
                25          25
                26          26
                27          27
                28          28
                29          29
                30          30
                31          31
                32          32
                33          33
                34          34
                35          35
                36          36
                37          37
                38          38
                39          39
                40          40

 KPOINTS: K-Spacing Value to Generate K-Mesh: 0.03

Automatic generation of k-mesh.
 Grid dimensions read from file:
 generate k-points for:    4    4    3

 Generating k-lattice:

[...]

[...]

 d Force =-0.1970407E-11[-0.991E-11, 0.597E-11]  d Energy =-0.2619345E-09 0.260E-09
 d Force =-0.8381631E-04[-0.838E-04,-0.838E-04]  d Ewald  =-0.8381665E-04 0.338E-09

--------------------------------------- Ionic step        6  -------------------------------------------

[...]

 eigenvalue-minimisations  :  3072
 total energy-change (2. order) : 0.3346941E-09  (-0.2354922E-12)
 number of electron     384.0000005 magnetization
 augmentation part       95.0339377 magnetization

 Broyden mixing:
  rms(total) = 0.89891E-07    rms(broyden)= 0.89882E-07
  rms(prec ) = 0.10547E-06
  weight for this iteration     100.00

 eigenvalues of (default mixing * dielectric matrix)
  average eigenvalue GAMMA=   1.0770
  1.3883  1.3883  0.4544

[...]

--------------------------------------- Iteration      6(   5)  ---------------------------------------

 eigenvalue-minimisations  :  3056
 total energy-change (2. order) :-0.7639755E-10  (-0.4982311E-12)
 number of electron     384.0000005 magnetization
 augmentation part       95.0339377 magnetization

 Free energy of the ion-electron system (eV)
  alpha Z        PSCENC =      1389.84234022
  Ewald energy   TEWEN  =    -30084.09929260
  -Hartree energ DENC   =    -11174.40243287
  -exchange      EXHF   =         0.00000000
  -V(xc)+E(xc)   XCENC  =      1255.96342636
  PAW double counting   =     36609.20555889   -36009.02193195
  entropy T*S    EENTRO =        -0.00000000
  eigenvalues    EBANDS =     -2537.56798527
  atomic energy  EATOM  =     40341.65184589
  Solvation  Ediel_sol  =         0.00000000
  free energy    TOTEN  =      -208.42847131 eV

  energy without entropy =     -208.42847131  energy(sigma->0) =     -208.42847131

 average (electrostatic) potential at core
  the test charge radii are     1.0856  1.0808  0.7215  0.9698
  (the norm of the test charge is              1.0000)
       1-104.1403       2-104.1403       3-104.1403       4-104.1403       5-104.1338
       6-104.1371       7-104.1371       8-104.1282       9-104.1338      10-104.1371
      11-104.1371      12-104.1282      13-104.1403      14-104.1403      15-104.1403
      16-104.1403      17 -50.1448      18 -50.1448      19 -50.1081      20 -50.1304
      21 -50.1304      22 -50.1304      23 -50.1304      24 -68.3674      25 -68.3493
      26 -68.3674      27 -68.3493      28 -68.3674      29 -68.3674      30 -68.3493
      31 -68.3493      32 -68.3674      33 -68.3674      34 -68.3493      35 -68.3493
      36 -68.3674      37 -68.3493      38 -68.3674      39 -68.3493      40 -83.2600

 E-fermi :   7.0235     XC(G=0): -10.7307     alpha+bet :-12.5981

 val. band max:        6.7666417111   @ k =   0.0000   0.0000   0.3333
 cond. band min:       7.3472799632   @ k =   0.0000   0.0000   0.0000
 fundamental gap:      0.5806382521
 Fermi energy:         7.0235242787

[...]

 k-point    12 :       0.5000    0.5000    0.3333
  band No.  band energies     occupation
      1     -16.1907      2.00000
      2     -16.1869      2.00000
      3     -16.1869      2.00000
      4     -16.1853      2.00000
      5     -16.1832      2.00000
      6     -16.1816      2.00000
      7     -16.1816      2.00000
      8     -16.1779      2.00000
      9     -16.0929      2.00000
     10     -16.0887      2.00000
     11     -16.0887      2.00000
     12     -16.0887      2.00000
     13     -16.0830      2.00000
     14     -16.0788      2.00000
     15     -16.0786      2.00000
     16     -16.0786      2.00000
     17     -16.0235      2.00000
     18     -16.0227      2.00000
     19     -16.0227      2.00000
     20     -16.0213      2.00000
     21     -16.0111      2.00000
     22     -16.0107      2.00000
     23     -16.0107      2.00000
     24     -16.0027      2.00000
     25     -15.9896      2.00000
     26     -15.9878      2.00000
     27     -15.9878      2.00000
     28     -15.9856      2.00000
     29     -15.9840      2.00000
     30     -15.9840      2.00000
     31     -15.9826      2.00000
     32     -15.9826      2.00000
     33     -15.9826      2.00000
     34     -15.9822      2.00000
     35     -15.9822      2.00000
     36     -15.9814      2.00000
     37     -15.9801      2.00000
     38     -15.9801      2.00000
     39     -15.9800      2.00000
     40     -15.9791      2.00000
     41     -15.9690      2.00000
     42     -15.9687      2.00000
     43     -15.9687      2.00000
     44     -15.9676      2.00000
     45     -15.9676      2.00000
     46     -15.9675      2.00000
     47     -15.9628      2.00000
     48     -15.9614      2.00000
     49     -15.9593      2.00000
     50     -15.9593      2.00000
     51     -15.9580      2.00000
     52     -15.9580      2.00000
     53     -15.9575      2.00000
     54     -15.9566      2.00000
     55     -15.9563      2.00000
     56     -15.9550      2.00000
     57     -15.9428      2.00000
     58     -15.9428      2.00000
     59     -15.9424      2.00000
     60     -15.9420      2.00000
[...]
    218      11.4399      0.00000
    219      11.4653      0.00000
    220      11.4668      0.00000
    221      11.5495      0.00000
    222      11.5495      0.00000
    223      11.5513      0.00000
    224      11.5639      0.00000
    225      12.0735      0.00000
    226      12.1096      0.00000
    227      12.1096      0.00000
    228      12.1433      0.00000
    229      12.1663      0.00000
    230      12.1664      0.00000
    231      12.2272      0.00000
    232      12.2303      0.00000

 soft charge-density along one line, spin component           1
         0         1         2         3         4         5         6         7         8         9
 total charge-density along one line

------------------------ aborting loop because EDIFF is reached ----------------------------------------

  FORCE on cell =-STRESS in cart. coord.  units (eV):
  Direction    XX          YY          ZZ          XY          YZ          ZX
  Alpha Z  1389.84234  1389.84234  1389.84234
  Ewald   -8500.76085 -8500.76085-13082.69006    -0.00000     0.00000    -0.00000
  Hartree  5095.45804  5095.45804   983.48635    -0.00000    -0.00000    -0.00000
  E(xc)   -1829.70963 -1829.70963 -1831.07054     0.00000     0.00000    -0.00000
  Local   -4864.98532 -4864.98532  3841.24620     0.00000     0.00000     0.00000
  n-local  1585.49309  1592.05649  1597.92821     0.60997    -0.05704     0.12815
  augment  2176.50773  2176.50773  2160.70469     0.00000     0.00000     0.00000
  Kinetic  4960.35628  4968.59750  4955.57298    -3.82477     0.46481    -0.58546
  Fock        0.00000     0.00000     0.00000     0.00000     0.00000     0.00000
  Total      19.60399    19.60399    15.02017     0.00000     0.00000     0.00000
  in kB      43.21476    43.21476    33.11025     0.00000     0.00000     0.00000

 VOLUME and BASIS-vectors are now :
  energy-cutoff  :      520.00
  volume of cell :      726.81
      direct lattice vectors                 reciprocal lattice vectors
     7.722556663  0.000000000  0.000000000     0.129490795  0.000000000  0.000000000
     0.000000000  7.722556663  0.000000000     0.000000000  0.129490795  0.000000000
     0.000000000  0.000000000 12.187111279     0.000000000  0.000000000  0.082053899

  length of vectors
     7.722556663  7.722556663 12.187111279     0.129490795  0.129490795  0.082053899

 FORCES acting on ions
    electron-ion (+dipol)            ewald-force                    non-local-force                 convergence-correction
   -.672E+01 -.672E+01 -.429E+03   0.659E+01 0.659E+01 0.440E+03   0.124E+00 0.124E+00 -.112E+02   0.344E-07 0.344E-07 0.344E-06
   0.672E+01 -.672E+01 -.429E+03   -.659E+01 0.659E+01 0.440E+03   -.124E+00 0.124E+00 -.112E+02   -.344E-07 0.344E-07 0.344E-06
   -.672E+01 0.672E+01 -.429E+03   0.659E+01 -.659E+01 0.440E+03   0.124E+00 -.124E+00 -.112E+02   0.344E-07 -.344E-07 0.344E-06
   0.672E+01 0.672E+01 -.429E+03   -.659E+01 -.659E+01 0.440E+03   -.124E+00 -.124E+00 -.112E+02   -.344E-07 -.344E-07 0.344E-06
   0.432E-14 -.831E-12 0.461E+03   -.568E-13 0.000E+00 -.472E+03   0.168E-17 0.568E-18 0.111E+02   0.725E-11 -.574E-12 0.716E-07
   0.719E-12 -.249E-12 0.459E+03   0.000E+00 -.480E-13 -.470E+03   0.202E-17 -.128E-18 0.111E+02   -.748E-11 -.864E-12 0.364E-06
   -.127E-13 -.484E-12 0.459E+03   -.114E-12 -.853E-13 -.470E+03   -.234E-18 0.415E-19 0.111E+02   0.105E-10 0.917E-12 0.364E-06
   0.701E-12 0.305E-11 0.459E+03   0.284E-13 0.342E-13 -.470E+03   0.660E-19 0.210E-19 0.111E+02   -.108E-10 0.108E-11 0.675E-06
   -.410E-13 0.892E-12 -.461E+03   0.284E-13 0.568E-13 0.472E+03   -.159E-17 -.408E-18 -.111E+02   -.446E-11 0.723E-12 -.716E-07
   0.699E-12 0.135E-12 -.459E+03   -.284E-13 0.178E-13 0.470E+03   -.114E-17 0.227E-18 -.111E+02   0.432E-11 0.734E-12 -.364E-06
   -.196E-13 0.956E-12 -.459E+03   0.199E-12 0.284E-13 0.470E+03   0.292E-18 -.601E-19 -.111E+02   -.320E-11 -.790E-12 -.364E-06
   0.695E-12 0.170E-11 -.459E+03   -.284E-13 -.142E-13 0.470E+03   0.140E-18 0.651E-19 -.111E+02   0.309E-11 -.128E-11 -.675E-06
   -.672E+01 -.672E+01 0.429E+03   0.659E+01 0.659E+01 -.440E+03   0.124E+00 0.124E+00 0.112E+02   0.344E-07 0.344E-07 -.344E-06
   0.672E+01 -.672E+01 0.429E+03   -.659E+01 0.659E+01 -.440E+03   -.124E+00 0.124E+00 0.112E+02   -.344E-07 0.344E-07 -.344E-06
   -.672E+01 0.672E+01 0.429E+03   0.659E+01 -.659E+01 -.440E+03   0.124E+00 -.124E+00 0.112E+02   0.344E-07 -.344E-07 -.344E-06
   0.672E+01 0.672E+01 0.429E+03   -.659E+01 -.659E+01 -.440E+03   -.124E+00 -.124E+00 0.112E+02   -.344E-07 -.344E-07 -.344E-06
   0.360E-13 0.152E-13 0.691E-12   0.114E-12 0.142E-13 0.178E-13   0.116E-27 -.722E-27 -.573E-27   0.318E-11 0.763E-13 0.425E-11
   0.119E-13 0.428E-13 -.108E-12   0.000E+00 0.284E-13 0.604E-13   -.723E-27 -.140E-27 -.845E-27   0.427E-12 -.773E-13 0.521E-11
   0.359E-13 -.150E-11 -.179E-11   0.853E-13 0.000E+00 0.817E-13   0.248E-27 0.612E-27 0.813E-27   -.444E-12 0.761E-13 0.499E-11
   -.206E+01 -.206E+01 -.818E-07   0.207E+01 0.207E+01 0.268E-14   -.102E-01 -.102E-01 0.107E-19   -.954E-07 -.954E-07 -.614E-11
   0.206E+01 -.206E+01 0.165E-11   -.207E+01 0.207E+01 -.470E-13   0.102E-01 -.102E-01 0.137E-20   0.954E-07 -.954E-07 -.105E-10
   -.206E+01 0.206E+01 0.377E-11   0.207E+01 -.207E+01 -.186E-13   -.102E-01 0.102E-01 -.788E-20   -.954E-07 0.954E-07 -.588E-11
   0.206E+01 0.206E+01 0.818E-07   -.207E+01 -.207E+01 0.983E-14   0.102E-01 0.102E-01 -.357E-20   0.954E-07 0.954E-07 -.948E-11
   -.288E-13 -.260E+01 0.893E+01   0.568E-13 0.261E+01 -.908E+01   -.285E-18 -.108E-01 0.146E+00   0.300E-11 0.248E-06 0.317E-06
   0.261E-12 -.200E+01 0.374E+01   0.284E-13 0.200E+01 -.360E+01   -.612E-18 0.708E-03 -.140E+00   -.309E-11 0.175E-06 0.726E-06
   -.235E-13 0.260E+01 0.893E+01   0.568E-13 -.261E+01 -.908E+01   -.849E-19 0.108E-01 0.146E+00   0.264E-11 -.248E-06 0.317E-06
   0.257E-12 0.200E+01 0.374E+01   -.142E-13 -.200E+01 -.360E+01   -.327E-18 -.708E-03 -.140E+00   -.275E-11 -.175E-06 0.726E-06
   -.260E+01 0.111E-13 0.893E+01   0.261E+01 -.711E-14 -.908E+01   -.108E-01 -.153E-18 0.146E+00   0.248E-06 0.598E-12 0.317E-06
   0.260E+01 -.390E-12 0.893E+01   -.261E+01 -.568E-13 -.908E+01   0.108E-01 0.204E-18 0.146E+00   -.248E-06 0.154E-12 0.317E-06
   -.200E+01 0.486E-12 0.374E+01   0.200E+01 -.213E-13 -.360E+01   0.708E-03 -.101E-18 -.140E+00   0.175E-06 0.896E-13 0.726E-06
   0.200E+01 -.164E-11 0.374E+01   -.200E+01 0.000E+00 -.360E+01   -.708E-03 -.439E-19 -.140E+00   -.175E-06 0.413E-12 0.726E-06
   -.260E+01 0.510E-12 -.893E+01   0.261E+01 -.249E-13 0.908E+01   -.108E-01 -.153E-18 -.146E+00   0.248E-06 0.304E-12 -.317E-06
   0.260E+01 -.626E-13 -.893E+01   -.261E+01 0.000E+00 0.908E+01   0.108E-01 0.272E-18 -.146E+00   -.248E-06 0.112E-11 -.317E-06
   -.200E+01 0.668E-12 -.374E+01   0.200E+01 0.000E+00 0.360E+01   0.708E-03 -.116E-19 0.140E+00   0.175E-06 0.788E-13 -.726E-06
   0.200E+01 0.358E-11 -.374E+01   -.200E+01 -.142E-13 0.360E+01   -.708E-03 0.130E-18 0.140E+00   -.175E-06 -.779E-12 -.726E-06
   0.933E-13 -.260E+01 -.893E+01   0.284E-13 0.261E+01 0.908E+01   0.345E-19 -.108E-01 -.146E+00   -.369E-11 0.248E-06 -.317E-06
   0.255E-12 -.200E+01 -.374E+01   0.568E-13 0.200E+01 0.360E+01   0.333E-18 0.708E-03 0.140E+00   0.357E-11 0.175E-06 -.726E-06
   0.686E-13 0.260E+01 -.893E+01   0.568E-13 -.261E+01 0.908E+01   -.264E-18 0.108E-01 -.146E+00   -.293E-11 -.248E-06 -.317E-06
   0.284E-12 0.200E+01 -.374E+01   0.142E-13 -.200E+01 0.360E+01   0.296E-18 -.708E-03 0.140E+00   0.282E-11 -.175E-06 -.726E-06
   0.126E-13 0.769E-14 -.174E-12   0.284E-13 -.284E-13 0.640E-13   0.325E-26 0.167E-26 0.207E-26   -.333E-11 0.373E-12 0.468E-11
   0.217E-11 0.836E-10 -.315E-09   0.853E-13 -.195E-13 0.426E-12   -.154E-16 0.206E-17 0.358E-14   0.703E-12 -.857E-11 0.911E-10

 POSITION                                       TOTAL-FORCE (eV/Angst)
      1.92141      1.92141     10.43700         0.000001      0.000001     -0.000006
      5.80115      1.92141     10.43700        -0.000001      0.000001     -0.000006
      1.92141      5.80115     10.43700         0.000001     -0.000001     -0.000006
      5.80115      5.80115     10.43700        -0.000001     -0.000001     -0.000006
      0.00000      0.00000      7.85505        -0.000000     -0.000000      0.000006
      3.86128      0.00000      7.86535        -0.000000     -0.000000      0.000002
      0.00000      3.86128      7.86535         0.000000     -0.000000      0.000002
      3.86128      3.86128      7.87673        -0.000000     -0.000000     -0.000001
      0.00000      0.00000      4.33206        -0.000000     -0.000000     -0.000006
      3.86128      0.00000      4.32176         0.000000     -0.000000     -0.000002
      0.00000      3.86128      4.32176         0.000000     -0.000000     -0.000002
      3.86128      3.86128      4.31038         0.000000     -0.000000      0.000001
      1.92141      1.92141      1.75011         0.000001      0.000001      0.000006
      5.80115      1.92141      1.75011        -0.000001      0.000001      0.000006
      1.92141      5.80115      1.75011         0.000001     -0.000001      0.000006
      5.80115      5.80115      1.75011        -0.000001     -0.000001      0.000006
      3.86128      0.00000     12.18711         0.000000     -0.000000     -0.000000
      0.00000      3.86128     12.18711         0.000000     -0.000000     -0.000000
      3.86128      3.86128     12.18711         0.000000     -0.000000     -0.000000
      1.93323      1.93323      6.09356         0.000004      0.000004     -0.000000
      5.78932      1.93323      6.09356        -0.000004      0.000004     -0.000000
      1.93323      5.78932      6.09356         0.000004     -0.000004     -0.000000
      5.78932      5.78932      6.09356        -0.000004     -0.000004     -0.000000
      0.00000      1.92644      9.14469         0.000000     -0.000004      0.000007
      3.86128      1.92747      9.15849         0.000000     -0.000004     -0.000001
      0.00000      5.79612      9.14469         0.000000      0.000004      0.000007
      3.86128      5.79509      9.15849        -0.000000      0.000004     -0.000001
      1.92644      0.00000      9.14469        -0.000004     -0.000000      0.000007
      5.79612      0.00000      9.14469         0.000004     -0.000000      0.000007
      1.92747      3.86128      9.15849        -0.000004     -0.000000     -0.000001
      5.79509      3.86128      9.15849         0.000004     -0.000000     -0.000001
      1.92644      0.00000      3.04242        -0.000004     -0.000000     -0.000007
      5.79612      0.00000      3.04242         0.000004     -0.000000     -0.000007
      1.92747      3.86128      3.02862        -0.000004     -0.000000      0.000001
      5.79509      3.86128      3.02862         0.000004     -0.000000      0.000001
      0.00000      1.92644      3.04242         0.000000     -0.000004     -0.000007
      3.86128      1.92747      3.02862         0.000000     -0.000004      0.000001
      0.00000      5.79612      3.04242         0.000000      0.000004     -0.000007
      3.86128      5.79509      3.02862         0.000000      0.000004      0.000001
      0.00000      0.00000     12.18711        -0.000000     -0.000000     -0.000000
    total drift:                                0.000000      0.000000     -0.000000

  FREE ENERGIE OF THE ION-ELECTRON SYSTEM (eV)
  free  energy   TOTEN  =      -208.42847131 eV

  energy  without entropy=     -208.42847131  energy(sigma->0) =     -208.42847131

 d Force = 0.3589356E-11[ 0.995E-12, 0.618E-11]  d Energy = 0.1218723E-09-0.118E-09
 d Force = 0.5231133E-04[ 0.523E-04, 0.523E-04]  d Ewald  = 0.5231157E-04-0.236E-09

 reached required accuracy - stopping structural energy minimisation