 vasp.6.4.3 19Mar24 (build Apr 09 2025 20:43:19) complex

 executed on             LinuxIFC date 2025.04.11  21:26:43

 INCAR:
   PREC = Accurate
   IBRION = 2
   NSW = 100
   NELMIN = 5
   ISIF = 3
   ENCUT = 520
   EDIFF = 1.000000e-08
   EDIFFG = -1.000000e-5
   ISMEAR = 0
   SIGMA = 0.05
   IALGO = 38
   LREAL = .FALSE.
   ADDGRID = .TRUE.
   LWAVE = .FALSE.
   LCHARG = .FALSE.
   NCORE = 9

 POTCAR:    PAW_PBE Bi_d 06Sep2000
 POTCAR:    PAW_PBE Se 06Sep2000
 POTCAR:    PAW_PBE O 08Apr2002
 POTCAR:    PAW_PBE S 06Sep2000
 POTCAR:    PAW_PBE Bi_d 06Sep2000
   VRHFIN =Bi:

   TITEL  = PAW_PBE Bi_d 06Sep2000
   POMASS =  208.980; ZVAL   =   15.000    mass and valenz
   ENMAX  =  242.839; ENMIN  =  182.129 eV

   TITEL  = PAW_PBE Se 06Sep2000
   POMASS =   78.960; ZVAL   =    6.000    mass and valenz
   ENMAX  =  211.555; ENMIN  =  158.666 eV

   TITEL  = PAW_PBE O 08Apr2002
   POMASS =   16.000; ZVAL   =    6.000    mass and valenz
   ENMAX  =  400.000; ENMIN  =  300.000 eV

   TITEL  = PAW_PBE S 06Sep2000
   POMASS =   32.066; ZVAL   =    6.000    mass and valenz
   ENMAX  =  258.689; ENMIN  =  194.016 eV

  PAW_PBE Bi_d 06Sep2000                :
  PAW_PBE Se 06Sep2000                  :
  PAW_PBE O 08Apr2002                   :
  PAW_PBE S 06Sep2000                   :

 POSCAR: generated by phonopy
  positions in direct lattice
  velocities in cartesian coordinates

 exchange-correlation table for PE
   RHO(1)=    0.500       N(1)  =     2000
   RHO(2)=  100.500       N(2)  =     4000

 ion  position               nearest neighbor table
   1  0.249  0.249  0.854-  24 2.34  28 2.34  25 2.34  30 2.34  40 3.30  18 3.31  17 3.31  19 3.32
                            13 3.61   5 3.77   7 3.77   6 3.77   8 3.77   3 3.90   2 3.90
   2  0.751  0.249  0.854-  24 2.34  29 2.34  25 2.34  31 2.34  40 3.30  18 3.31  17 3.31  19 3.32
                            14 3.61   5 3.77   7 3.77   6 3.77   8 3.77   4 3.90   1 3.90
   3  0.249  0.751  0.854-  26 2.34  28 2.34  27 2.34  30 2.34  40 3.30  18 3.31  17 3.31  19 3.32
                            15 3.61   5 3.77   7 3.77   6 3.77   8 3.77   4 3.90   1 3.90
   4  0.751  0.751  0.854-  26 2.34  29 2.34  27 2.34  31 2.34  40 3.30  18 3.31  17 3.31  19 3.32
                            16 3.61   5 3.77   7 3.77   6 3.77   8 3.77   3 3.90   2 3.90
   5  0.000  0.000  0.647-  24 2.34  26 2.34  28 2.34  29 2.34  20 3.31  21 3.31  22 3.31  23 3.31
                             9 3.63   2 3.77   3 3.77   4 3.77   1 3.77   7 3.92   6 3.92   7 3.92
   6  0.500  0.000  0.648-  28 2.34  29 2.34  25 2.34  27 2.34  20 3.32  21 3.32  22 3.32  23 3.32
                            10 3.65   2 3.77   3 3.77   4 3.77   1 3.77   5 3.92   5 3.92   8 3.92
   7  0.000  0.500  0.648-  24 2.34  26 2.34  30 2.34  31 2.34  20 3.32  21 3.32  22 3.32  23 3.32
                            11 3.65   2 3.77   3 3.77   4 3.77   1 3.77   5 3.92   5 3.92   8 3.92
   8  0.500  0.500  0.648-  25 2.34  27 2.34  30 2.34  31 2.34  20 3.32  21 3.32  22 3.32  23 3.32
                            12 3.67   2 3.77   3 3.77   4 3.77   1 3.77   7 3.92   6 3.92   6 3.92
   9  0.000  0.000  0.353-  32 2.34  33 2.34  36 2.34  38 2.34  20 3.31  21 3.31  22 3.31  23 3.31
                             5 3.63  13 3.77  14 3.77  15 3.77  16 3.77  10 3.92  11 3.92  11 3.92
  10  0.500  0.000  0.352-  32 2.34  33 2.34  37 2.34  39 2.34  20 3.32  21 3.32  22 3.32  23 3.32
                             6 3.65  13 3.77  14 3.77  15 3.77  16 3.77   9 3.92   9 3.92  12 3.92
  11  0.000  0.500  0.352-  36 2.34  38 2.34  34 2.34  35 2.34  20 3.32  21 3.32  22 3.32  23 3.32
                             7 3.65  13 3.77  14 3.77  15 3.77  16 3.77   9 3.92   9 3.92  12 3.92
  12  0.500  0.500  0.352-  34 2.34  35 2.34  37 2.34  39 2.34  20 3.32  21 3.32  22 3.32  23 3.32
                             8 3.67  13 3.77  14 3.77  15 3.77  16 3.77  10 3.92  11 3.92  10 3.92
  13  0.249  0.249  0.146-  32 2.34  36 2.34  34 2.34  37 2.34  40 3.30  18 3.31  17 3.31  19 3.32
                             1 3.61   9 3.77  10 3.77  11 3.77  12 3.77  14 3.90  15 3.90
  14  0.751  0.249  0.146-  33 2.34  36 2.34  35 2.34  37 2.34  40 3.30  18 3.31  17 3.31  19 3.32
                             2 3.61   9 3.77  10 3.77  11 3.77  12 3.77  13 3.90  16 3.90
  15  0.249  0.751  0.146-  32 2.34  38 2.34  34 2.34  39 2.34  40 3.30  18 3.31  17 3.31  19 3.32
                             3 3.61   9 3.77  10 3.77  11 3.77  12 3.77  13 3.90  16 3.90
  16  0.751  0.751  0.146-  33 2.34  38 2.34  35 2.34  39 2.34  40 3.30  18 3.31  17 3.31  19 3.32
                             4 3.61   9 3.77  10 3.77  11 3.77  12 3.77  14 3.90  15 3.90
  17  0.500  0.000  0.000-   1 3.31   2 3.31   3 3.31   4 3.31  13 3.31  14 3.31  15 3.31  16 3.31

  18  0.000  0.500  0.000-   1 3.31   2 3.31   3 3.31   4 3.31  13 3.31  14 3.31  15 3.31  16 3.31

[...]

  24  0.000  0.250  0.750-   1 2.34   2 2.34   5 2.34   7 2.34
  25  0.500  0.250  0.751-   8 2.34   6 2.34   1 2.34   2 2.34
  26  0.000  0.750  0.750-   3 2.34   4 2.34   5 2.34   7 2.34
  27  0.500  0.750  0.751-   8 2.34   6 2.34   3 2.34   4 2.34
  28  0.250  0.000  0.750-   1 2.34   3 2.34   5 2.34   6 2.34
  29  0.750  0.000  0.750-   2 2.34   4 2.34   5 2.34   6 2.34
  30  0.250  0.500  0.751-   8 2.34   7 2.34   1 2.34   3 2.34
  31  0.750  0.500  0.751-   8 2.34   7 2.34   2 2.34   4 2.34
  32  0.250  0.000  0.250-  13 2.34  15 2.34   9 2.34  10 2.34
  33  0.750  0.000  0.250-  14 2.34  16 2.34   9 2.34  10 2.34
  34  0.250  0.500  0.249-  12 2.34  11 2.34  13 2.34  15 2.34
  35  0.750  0.500  0.249-  12 2.34  11 2.34  14 2.34  16 2.34
  36  0.000  0.250  0.250-  13 2.34  14 2.34   9 2.34  11 2.34
  37  0.500  0.250  0.249-  12 2.34  10 2.34  13 2.34  14 2.34
  38  0.000  0.750  0.250-  15 2.34  16 2.34   9 2.34  11 2.34
  39  0.500  0.750  0.249-  12 2.34  10 2.34  15 2.34  16 2.34
  40  0.000  0.000  0.000-   1 3.30   2 3.30   3 3.30   4 3.30  13 3.30  14 3.30  15 3.30  16 3.30

  LATTYP: Found a simple tetragonal cell.
 ALAT       =     7.8399950173
 C/A-ratio  =     1.5780666194

  Lattice vectors:

 A1 = (   7.8399950173,   0.0000000000,   0.0000000000)
 A2 = (   0.0000000000,   7.8399950173,   0.0000000000)
 A3 = (   0.0000000000,   0.0000000000,  12.3720344332)

Analysis of symmetry for initial positions (statically):
 Subroutine PRICEL returns:
 Original cell was already a primitive cell.

 Routine SETGRP: Setting up the symmetry group for a
 simple tetragonal supercell.

 Subroutine GETGRP returns: Found 16 space group operations
 (whereof 16 operations were pure point group operations)
 out of a pool of 16 trial point group operations.

The static configuration has the point symmetry D_4h.

Analysis of symmetry for dynamics (positions and initial velocities):
 Subroutine PRICEL returns:
 Original cell was already a primitive cell.

 Routine SETGRP: Setting up the symmetry group for a
 simple tetragonal supercell.

 Subroutine GETGRP returns: Found 16 space group operations
 (whereof 16 operations were pure point group operations)
 out of a pool of 16 trial point group operations.

The dynamic configuration has the point symmetry D_4h.

 Subroutine INISYM returns: Found 16 space group operations
 (whereof 16 operations are pure point group operations),
 and found     1 'primitive' translations

                                     Primitive cell

  volume of cell :     760.4536

  direct lattice vectors                    reciprocal lattice vectors
     7.839995017  0.000000000  0.000000000     0.127551101  0.000000000  0.000000000
     0.000000000  7.839995017  0.000000000     0.000000000  0.127551101  0.000000000
     0.000000000  0.000000000 12.372034433     0.000000000  0.000000000  0.080827450

  length of vectors
     7.839995017  7.839995017 12.372034433     0.127551101  0.127551101  0.080827450

  position of ions in fractional coordinates (direct lattice)
     0.248910988  0.248910988  0.854286893
     0.751089012  0.248910988  0.854286893
     0.248910988  0.751089012  0.854286893
     0.751089012  0.751089012  0.854286893
     0.000000000  0.000000000  0.646712876
     0.500000000  0.000000000  0.647510539
     0.000000000  0.500000000  0.647510539
     0.500000000  0.500000000  0.648411834
     0.000000000  0.000000000  0.353287124
     0.500000000  0.000000000  0.352489461
     0.000000000  0.500000000  0.352489461
     0.500000000  0.500000000  0.351588166
     0.248910988  0.248910988  0.145713107
     0.751089012  0.248910988  0.145713107
     0.248910988  0.751089012  0.145713107
     0.751089012  0.751089012  0.145713107
     0.500000000  0.000000000  0.000000000
     0.000000000  0.500000000  0.000000000
     0.500000000  0.500000000  0.000000000
     0.250137717  0.250137717  0.500000000
     0.749862283  0.250137717  0.500000000
     0.250137717  0.749862283  0.500000000
     0.749862283  0.749862283  0.500000000
     0.000000000  0.249535363  0.750473209
     0.500000000  0.249670389  0.751393975
     0.000000000  0.750464637  0.750473209
     0.500000000  0.750329611  0.751393975
     0.249535363  0.000000000  0.750473209
     0.750464637  0.000000000  0.750473209
     0.249670389  0.500000000  0.751393975
     0.750329611  0.500000000  0.751393975
     0.249535363  0.000000000  0.249526791
     0.750464637  0.000000000  0.249526791
     0.249670389  0.500000000  0.248606025
     0.750329611  0.500000000  0.248606025
     0.000000000  0.249535363  0.249526791
     0.500000000  0.249670389  0.248606025
     0.000000000  0.750464637  0.249526791
     0.500000000  0.750329611  0.248606025
     0.000000000  0.000000000  0.000000000

  ion indices of the primitive-cell ions
   primitive index   ion index
                 1           1
                 2           2
                 3           3
                 4           4
                 5           5
                 6           6
                 7           7
                 8           8
                 9           9
                10          10
                11          11
                12          12
                13          13
                14          14
                15          15
                16          16
                17          17
                18          18
                19          19
                20          20
                21          21
                22          22
                23          23
                24          24
                25          25
                26          26
                27          27
                28          28
                29          29
                30          30
                31          31
                32          32
                33          33
                34          34
                35          35
                36          36
                37          37
                38          38
                39          39
                40          40

 KPOINTS: K-Spacing Value to Generate K-Mesh: 0.03

Automatic generation of k-mesh.
 Grid dimensions read from file:
 generate k-points for:    4    4    3

 Generating k-lattice:

[...]

[...]

 d Force = 0.1460182E-10[-0.202E-11, 0.312E-10]  d Energy = 0.9217729E-08-0.920E-08
 d Force = 0.4194590E-03[ 0.419E-03, 0.419E-03]  d Ewald  =-0.1221279E-02 0.164E-02

--------------------------------------- Ionic step       24  -------------------------------------------

[...]

 eigenvalue-minimisations  :  2928
 total energy-change (2. order) : 0.2582965E-09  (-0.8324707E-12)
 number of electron     384.0000008 magnetization
 augmentation part       95.0231351 magnetization

 Broyden mixing:
  rms(total) = 0.13007E-06    rms(broyden)= 0.13007E-06
  rms(prec ) = 0.15216E-06
  weight for this iteration     100.00

 eigenvalues of (default mixing * dielectric matrix)
  average eigenvalue GAMMA=   1.3156
  1.9488  1.0614  0.9365

[...]

--------------------------------------- Iteration     24(   5)  ---------------------------------------

 eigenvalue-minimisations  :  2928
 total energy-change (2. order) :-0.1937224E-09  (-0.7872152E-12)
 number of electron     384.0000008 magnetization
 augmentation part       95.0231351 magnetization

 Free energy of the ion-electron system (eV)
  alpha Z        PSCENC =      1328.23288778
  Ewald energy   TEWEN  =    -29442.33281796
  -Hartree energ DENC   =    -11560.02112242
  -exchange      EXHF   =         0.00000000
  -V(xc)+E(xc)   XCENC  =      1251.48076375
  PAW double counting   =     36247.58711439   -35643.62742059
  entropy T*S    EENTRO =        -0.00000000
  eigenvalues    EBANDS =     -2731.83077403
  atomic energy  EATOM  =     40341.65184589
  Solvation  Ediel_sol  =         0.00000000
  free energy    TOTEN  =      -208.85952319 eV

  energy without entropy =     -208.85952319  energy(sigma->0) =     -208.85952319

 average (electrostatic) potential at core
  the test charge radii are     1.0856  1.0808  0.7215  0.9698
  (the norm of the test charge is              1.0000)
       1-104.7473       2-104.7473       3-104.7473       4-104.7473       5-104.7390
       6-104.7436       7-104.7436       8-104.7358       9-104.7390      10-104.7436
      11-104.7436      12-104.7358      13-104.7473      14-104.7473      15-104.7473
      16-104.7473      17 -50.6168      18 -50.6168      19 -50.5817      20 -50.5992
      21 -50.5992      22 -50.5992      23 -50.5992      24 -68.8878      25 -68.8724
      26 -68.8878      27 -68.8724      28 -68.8878      29 -68.8878      30 -68.8724
      31 -68.8724      32 -68.8878      33 -68.8878      34 -68.8724      35 -68.8724
      36 -68.8878      37 -68.8724      38 -68.8878      39 -68.8724      40 -83.7163

 E-fermi :   6.5360     XC(G=0): -10.4977     alpha+bet :-12.0397

 val. band max:        6.3283442411   @ k =   0.0000   0.0000   0.3333
 cond. band min:       6.7334976859   @ k =   0.0000   0.0000   0.0000
 fundamental gap:      0.4051534448
 Fermi energy:         6.5360422634

[...]

 k-point    12 :       0.5000    0.5000    0.3333
  band No.  band energies     occupation
      1     -16.7501      2.00000
      2     -16.7473      2.00000
      3     -16.7473      2.00000
      4     -16.7462      2.00000
      5     -16.7448      2.00000
      6     -16.7435      2.00000
      7     -16.7435      2.00000
      8     -16.7409      2.00000
      9     -16.6627      2.00000
     10     -16.6593      2.00000
     11     -16.6589      2.00000
     12     -16.6589      2.00000
     13     -16.6557      2.00000
     14     -16.6522      2.00000
     15     -16.6516      2.00000
     16     -16.6516      2.00000
     17     -16.6051      2.00000
     18     -16.6046      2.00000
     19     -16.6046      2.00000
     20     -16.6035      2.00000
     21     -16.5941      2.00000
     22     -16.5941      2.00000
     23     -16.5931      2.00000
     24     -16.5878      2.00000
     25     -16.5749      2.00000
     26     -16.5735      2.00000
     27     -16.5735      2.00000
     28     -16.5723      2.00000
     29     -16.5717      2.00000
     30     -16.5716      2.00000
     31     -16.5712      2.00000
     32     -16.5712      2.00000
     33     -16.5709      2.00000
     34     -16.5699      2.00000
     35     -16.5697      2.00000
     36     -16.5697      2.00000
     37     -16.5687      2.00000
     38     -16.5687      2.00000
     39     -16.5678      2.00000
     40     -16.5676      2.00000
     41     -16.5545      2.00000
     42     -16.5545      2.00000
     43     -16.5537      2.00000
     44     -16.5537      2.00000
     45     -16.5536      2.00000
     46     -16.5523      2.00000
     47     -16.5509      2.00000
     48     -16.5509      2.00000
     49     -16.5496      2.00000
     50     -16.5493      2.00000
     51     -16.5490      2.00000
     52     -16.5487      2.00000
     53     -16.5487      2.00000
     54     -16.5484      2.00000
     55     -16.5466      2.00000
     56     -16.5461      2.00000
     57     -16.5422      2.00000
     58     -16.5422      2.00000
     59     -16.5405      2.00000
     60     -16.5405      2.00000
[...]
    218      10.6544      0.00000
    219      10.6730      0.00000
    220      10.6897      0.00000
    221      10.7215      0.00000
    222      10.7215      0.00000
    223      10.7217      0.00000
    224      10.7294      0.00000
    225      11.2990      0.00000
    226      11.3169      0.00000
    227      11.3169      0.00000
    228      11.3779      0.00000
    229      11.3900      0.00000
    230      11.3900      0.00000
    231      11.4148      0.00000
    232      11.4160      0.00000

 soft charge-density along one line, spin component           1
         0         1         2         3         4         5         6         7         8         9
 total charge-density along one line

------------------------ aborting loop because EDIFF is reached ----------------------------------------

  FORCE on cell =-STRESS in cart. coord.  units (eV):
  Direction    XX          YY          ZZ          XY          YZ          ZX
  Alpha Z  1328.23289  1328.23289  1328.23289
  Ewald   -8068.91160 -8068.91160-13304.62223    -0.00000    -0.00000    -0.00000
  Hartree  5390.89686  5390.89686   778.22739    -0.00000    -0.00000    -0.00000
  E(xc)   -1825.77887 -1825.77887 -1827.44677    -0.00000    -0.00000    -0.00000
  Local   -5524.15264 -5524.15264  4333.26238    -0.00000    -0.00000     0.00000
  n-local  1576.66607  1584.35690  1586.62403     0.48648    -0.05643     0.11331
  augment  2176.41300  2176.41300  2161.13074     0.00000     0.00000     0.00000
  Kinetic  4938.48025  4947.09733  4944.59162    -3.52151     0.45473    -0.53027
  Fock        0.00000     0.00000     0.00000     0.00000     0.00000     0.00000
  Total      -0.00010    -0.00010     0.00004     0.00000     0.00000     0.00000
  in kB      -0.00020    -0.00020     0.00008     0.00000     0.00000     0.00000

 VOLUME and BASIS-vectors are now :
  energy-cutoff  :      520.00
  volume of cell :      760.53
      direct lattice vectors                 reciprocal lattice vectors
     7.840159049  0.000000000  0.000000000     0.127548433  0.000000000 -0.000000000
     0.000000000  7.840159049  0.000000000     0.000000000  0.127548433  0.000000000
     0.000000000  0.000000000 12.372701806    -0.000000000  0.000000000  0.080823091

  length of vectors
     7.840159049  7.840159049 12.372701806     0.127548433  0.127548433  0.080823091

 FORCES acting on ions
    electron-ion (+dipol)            ewald-force                    non-local-force                 convergence-correction
   -.604E+01 -.604E+01 -.438E+03   0.593E+01 0.593E+01 0.448E+03   0.106E+00 0.106E+00 -.109E+02   -.192E-06 -.192E-06 0.932E-06
   0.604E+01 -.604E+01 -.438E+03   -.593E+01 0.593E+01 0.448E+03   -.106E+00 0.106E+00 -.109E+02   0.192E-06 -.192E-06 0.932E-06
   -.604E+01 0.604E+01 -.438E+03   0.593E+01 -.593E+01 0.448E+03   0.106E+00 -.106E+00 -.109E+02   -.192E-06 0.192E-06 0.932E-06
   0.604E+01 0.604E+01 -.438E+03   -.593E+01 -.593E+01 0.448E+03   -.106E+00 -.106E+00 -.109E+02   0.192E-06 0.192E-06 0.932E-06
   -.108E-12 0.575E-12 0.469E+03   0.141E-10 0.142E-10 -.479E+03   0.124E-17 0.474E-18 0.107E+02   -.891E-13 0.163E-12 -.373E-06
   0.733E-12 -.291E-12 0.467E+03   0.142E-10 0.230E-12 -.478E+03   0.165E-17 -.525E-18 0.107E+02   -.193E-13 0.421E-14 -.424E-06
   -.897E-13 0.167E-11 0.467E+03   0.171E-12 0.143E-10 -.478E+03   0.511E-18 0.496E-18 0.107E+02   0.128E-11 -.693E-12 -.424E-06
   0.719E-12 -.458E-11 0.467E+03   0.227E-12 0.187E-12 -.478E+03   0.753E-18 0.634E-18 0.108E+02   -.140E-11 0.165E-13 -.477E-06
   -.259E-13 -.515E-12 -.469E+03   0.142E-10 0.142E-10 0.479E+03   0.492E-18 0.877E-18 -.107E+02   -.151E-11 -.175E-11 0.373E-06
   0.850E-12 0.184E-12 -.467E+03   0.143E-10 0.234E-12 0.478E+03   -.167E-17 -.397E-18 -.107E+02   0.131E-11 -.300E-11 0.424E-06
   -.924E-14 0.861E-13 -.467E+03   0.256E-12 0.144E-10 0.478E+03   -.250E-18 -.467E-18 -.107E+02   -.340E-12 0.189E-11 0.424E-06
   0.786E-12 -.375E-11 -.467E+03   0.369E-12 0.270E-12 0.478E+03   0.935E-19 -.679E-18 -.108E+02   0.118E-12 0.251E-11 0.477E-06
   -.604E+01 -.604E+01 0.438E+03   0.593E+01 0.593E+01 -.448E+03   0.106E+00 0.106E+00 0.109E+02   -.192E-06 -.192E-06 -.932E-06
   0.604E+01 -.604E+01 0.438E+03   -.593E+01 0.593E+01 -.448E+03   -.106E+00 0.106E+00 0.109E+02   0.192E-06 -.192E-06 -.932E-06
   -.604E+01 0.604E+01 0.438E+03   0.593E+01 -.593E+01 -.448E+03   0.106E+00 -.106E+00 0.109E+02   -.192E-06 0.192E-06 -.932E-06
   0.604E+01 0.604E+01 0.438E+03   -.593E+01 -.593E+01 -.448E+03   -.106E+00 -.106E+00 0.109E+02   0.192E-06 0.192E-06 -.932E-06
   0.565E-13 0.498E-13 0.214E-12   0.597E-12 0.711E-13 0.675E-13   -.137E-28 -.633E-27 -.179E-27   0.217E-11 -.626E-12 0.108E-11
   0.284E-13 0.640E-13 -.116E-12   0.284E-13 0.512E-12 0.639E-13   -.414E-27 -.356E-28 -.316E-27   0.156E-12 0.452E-12 0.199E-12
   0.560E-13 -.516E-12 0.206E-12   0.853E-13 0.000E+00 0.213E-13   0.172E-28 0.233E-27 -.201E-26   -.160E-12 0.571E-12 0.591E-12
   -.209E+01 -.209E+01 -.375E-07   0.210E+01 0.210E+01 -.990E-14   -.105E-01 -.105E-01 0.449E-20   -.770E-07 -.770E-07 -.251E-13
   0.209E+01 -.209E+01 -.123E-10   -.210E+01 0.210E+01 0.221E-13   0.105E-01 -.105E-01 -.827E-20   0.770E-07 -.770E-07 0.294E-12
   -.209E+01 0.209E+01 0.302E-11   0.210E+01 -.210E+01 0.221E-13   -.105E-01 0.105E-01 0.799E-20   -.770E-07 0.770E-07 -.581E-12
   0.209E+01 0.209E+01 0.375E-07   -.210E+01 -.210E+01 0.221E-13   0.105E-01 0.105E-01 -.394E-20   0.770E-07 0.770E-07 -.759E-12
   0.565E-13 -.227E+01 0.855E+01   0.200E-11 0.226E+01 -.869E+01   0.308E-18 0.208E-02 0.147E+00   -.379E-12 0.801E-07 0.253E-06
   0.313E-12 -.166E+01 0.389E+01   0.205E-11 0.164E+01 -.374E+01   -.448E-18 0.156E-01 -.143E+00   0.292E-12 0.114E-06 -.573E-08
   0.698E-13 0.227E+01 0.855E+01   0.193E-11 -.226E+01 -.869E+01   0.154E-18 -.208E-02 0.147E+00   0.300E-13 -.801E-07 0.253E-06
   0.300E-12 0.166E+01 0.389E+01   0.206E-11 -.164E+01 -.374E+01   -.497E-18 -.156E-01 -.143E+00   -.114E-12 -.114E-06 -.573E-08
   -.227E+01 0.997E-12 0.855E+01   0.226E+01 0.205E-11 -.869E+01   0.208E-02 -.111E-18 0.147E+00   0.801E-07 0.282E-12 0.253E-06
   0.227E+01 -.166E-11 0.855E+01   -.226E+01 0.203E-11 -.869E+01   -.208E-02 -.414E-18 0.147E+00   -.801E-07 0.189E-12 0.253E-06
   -.166E+01 0.330E-12 0.389E+01   0.164E+01 0.202E-11 -.374E+01   0.156E-01 0.320E-18 -.143E+00   0.114E-06 0.245E-13 -.573E-08
   0.166E+01 -.342E-11 0.389E+01   -.164E+01 0.202E-11 -.374E+01   -.156E-01 0.491E-18 -.143E+00   -.114E-06 -.809E-12 -.573E-08
   -.227E+01 0.175E-11 -.855E+01   0.226E+01 0.204E-11 0.869E+01   0.208E-02 -.435E-18 -.147E+00   0.801E-07 -.104E-11 -.253E-06
   0.227E+01 -.846E-12 -.855E+01   -.226E+01 0.202E-11 0.869E+01   -.208E-02 0.904E-19 -.147E+00   -.801E-07 -.106E-11 -.253E-06
   -.166E+01 0.409E-11 -.389E+01   0.164E+01 0.201E-11 0.374E+01   0.156E-01 0.345E-18 0.143E+00   0.114E-06 0.112E-11 0.573E-08
   0.166E+01 0.788E-11 -.389E+01   -.164E+01 0.202E-11 0.374E+01   -.156E-01 -.286E-18 0.143E+00   -.114E-06 0.797E-12 0.573E-08
   0.939E-13 -.227E+01 -.855E+01   0.200E-11 0.226E+01 0.869E+01   -.170E-18 0.208E-02 -.147E+00   -.122E-11 0.801E-07 -.253E-06
   0.341E-12 -.166E+01 -.389E+01   0.205E-11 0.164E+01 0.374E+01   0.587E-18 0.156E-01 0.143E+00   0.116E-11 0.114E-06 0.573E-08
   0.967E-13 0.227E+01 -.855E+01   0.202E-11 -.226E+01 0.869E+01   -.695E-19 -.208E-02 -.147E+00   -.116E-11 -.801E-07 -.253E-06
   0.330E-12 0.166E+01 -.389E+01   0.209E-11 -.164E+01 0.374E+01   0.206E-18 -.156E-01 0.143E+00   0.110E-11 -.114E-06 0.573E-08
   0.310E-13 0.216E-13 -.121E-12   0.625E-12 0.654E-12 0.107E-13   -.372E-27 0.147E-26 -.689E-26   -.228E-11 -.523E-12 0.397E-12
   0.732E-11 -.171E-10 -.228E-09   0.853E-13 -.199E-12 -.259E-12   -.118E-17 -.139E-16 -.705E-14   -.591E-12 0.417E-11 0.449E-11

 POSITION                                       TOTAL-FORCE (eV/Angst)
      1.95150      1.95150     10.56977        -0.000002     -0.000002      0.000005
      5.88866      1.95150     10.56977         0.000002     -0.000002      0.000005
      1.95150      5.88866     10.56977        -0.000002      0.000002      0.000005
      5.88866      5.88866     10.56977         0.000002      0.000002      0.000005
      0.00000      0.00000      8.00164         0.000000     -0.000000      0.000006
      3.92008      0.00000      8.01152         0.000000     -0.000000      0.000006
      0.00000      3.92008      8.01152         0.000000     -0.000000      0.000006
      3.92008      3.92008      8.02267         0.000000     -0.000000      0.000003
      0.00000      0.00000      4.37106        -0.000000     -0.000000     -0.000006
      3.92008      0.00000      4.36118        -0.000000     -0.000000     -0.000006
      0.00000      3.92008      4.36118        -0.000000     -0.000000     -0.000006
      3.92008      3.92008      4.35003        -0.000000     -0.000000     -0.000003
      1.95150      1.95150      1.80293        -0.000002     -0.000002     -0.000005
      5.88866      1.95150      1.80293         0.000002     -0.000002     -0.000005
      1.95150      5.88866      1.80293        -0.000002      0.000002     -0.000005
      5.88866      5.88866      1.80293         0.000002      0.000002     -0.000005
      3.92008      0.00000      0.00000        -0.000000     -0.000000     -0.000000
      0.00000      3.92008      0.00000         0.000000     -0.000000     -0.000000
      3.92008      3.92008      0.00000        -0.000000     -0.000000     -0.000000
      1.96112      1.96112      6.18635        -0.000006     -0.000006     -0.000000
      5.87904      1.96112      6.18635         0.000006     -0.000006     -0.000000
      1.96112      5.87904      6.18635        -0.000006      0.000006     -0.000000
      5.87904      5.87904      6.18635         0.000006      0.000006     -0.000000
      0.00000      1.95640      9.28538         0.000000      0.000003      0.000007
      3.92008      1.95745      9.29677         0.000000      0.000003      0.000001
      0.00000      5.88376      9.28538         0.000000     -0.000003      0.000007
      3.92008      5.88271      9.29677         0.000000     -0.000003      0.000001
      1.95640      0.00000      9.28538         0.000003     -0.000000      0.000007
      5.88376      0.00000      9.28538        -0.000003     -0.000000      0.000007
      1.95745      3.92008      9.29677         0.000003     -0.000000      0.000001
      5.88271      3.92008      9.29677        -0.000003     -0.000000      0.000001
      1.95640      0.00000      3.08732         0.000003     -0.000000     -0.000007
      5.88376      0.00000      3.08732        -0.000003     -0.000000     -0.000007
      1.95745      3.92008      3.07593         0.000003     -0.000000     -0.000001
      5.88271      3.92008      3.07593        -0.000003     -0.000000     -0.000001
      0.00000      1.95640      3.08732        -0.000000      0.000003     -0.000007
      3.92008      1.95745      3.07593        -0.000000      0.000003     -0.000001
      0.00000      5.88376      3.08732        -0.000000     -0.000003     -0.000007
      3.92008      5.88271      3.07593        -0.000000     -0.000003     -0.000001
      0.00000      0.00000      0.00000         0.000000     -0.000000     -0.000000
    total drift:                                0.000000     -0.000000     -0.000000

  FREE ENERGIE OF THE ION-ELECTRON SYSTEM (eV)
  free  energy   TOTEN  =      -208.85952319 eV

  energy  without entropy=     -208.85952319  energy(sigma->0) =     -208.85952319

 d Force =-0.7658896E-12[-0.211E-11, 0.582E-12]  d Energy =-0.3568857E-08 0.357E-08
 d Force =-0.1206705E-03[-0.121E-03,-0.121E-03]  d Ewald  = 0.3513391E-03-0.472E-03

 reached required accuracy - stopping structural energy minimisation