 vasp.6.4.3 19Mar24 (build Apr 09 2025 20:43:19) complex

 executed on             LinuxIFC date 2025.04.13  18:46:37

 INCAR:
   PREC = Accurate
   IBRION = 2
   NSW = 100
   NELMIN = 5
   ISIF = 2
   ENCUT = 520
   EDIFF = 1.000000e-08
   EDIFFG = -1.000000e-5
   ISMEAR = 0
   SIGMA = 0.05
   IALGO = 38
   LREAL = .FALSE.
   ADDGRID = .TRUE.
   LWAVE = .FALSE.
   LCHARG = .FALSE.
   NCORE = 9

 POTCAR:    PAW_PBE Bi_d 06Sep2000
 POTCAR:    PAW_PBE Se 06Sep2000
 POTCAR:    PAW_PBE O 08Apr2002
 POTCAR:    PAW_PBE S 06Sep2000
 POTCAR:    PAW_PBE Bi_d 06Sep2000
   VRHFIN =Bi:

   TITEL  = PAW_PBE Bi_d 06Sep2000
   POMASS =  208.980; ZVAL   =   15.000    mass and valenz
   ENMAX  =  242.839; ENMIN  =  182.129 eV

   TITEL  = PAW_PBE Se 06Sep2000
   POMASS =   78.960; ZVAL   =    6.000    mass and valenz
   ENMAX  =  211.555; ENMIN  =  158.666 eV

   TITEL  = PAW_PBE O 08Apr2002
   POMASS =   16.000; ZVAL   =    6.000    mass and valenz
   ENMAX  =  400.000; ENMIN  =  300.000 eV

   TITEL  = PAW_PBE S 06Sep2000
   POMASS =   32.066; ZVAL   =    6.000    mass and valenz
   ENMAX  =  258.689; ENMIN  =  194.016 eV

  PAW_PBE Bi_d 06Sep2000                :
  PAW_PBE Se 06Sep2000                  :
  PAW_PBE O 08Apr2002                   :
  PAW_PBE S 06Sep2000                   :

 POSCAR: generated by phonopy
  positions in direct lattice
  velocities in cartesian coordinates

 exchange-correlation table for PE
   RHO(1)=    0.500       N(1)  =     2000
   RHO(2)=  100.500       N(2)  =     4000

 ion  position               nearest neighbor table
   1  0.249  0.249  0.854-  24 2.34  28 2.34  25 2.34  30 2.34  40 3.30  18 3.31  17 3.31  19 3.32
                            13 3.61   5 3.77   7 3.77   6 3.77   8 3.77   3 3.90   2 3.90
   2  0.751  0.249  0.854-  24 2.34  29 2.34  25 2.34  31 2.34  40 3.30  18 3.31  17 3.31  19 3.32
                            14 3.61   5 3.77   7 3.77   6 3.77   8 3.77   4 3.90   1 3.90
   3  0.249  0.751  0.854-  26 2.34  28 2.34  27 2.34  30 2.34  40 3.30  18 3.31  17 3.31  19 3.32
                            15 3.61   5 3.77   7 3.77   6 3.77   8 3.77   4 3.90   1 3.90
   4  0.751  0.751  0.854-  26 2.34  29 2.34  27 2.34  31 2.34  40 3.30  18 3.31  17 3.31  19 3.32
                            16 3.61   5 3.77   7 3.77   6 3.77   8 3.77   3 3.90   2 3.90
   5  0.000  0.000  0.647-  24 2.34  26 2.34  28 2.34  29 2.34  20 3.31  21 3.31  22 3.31  23 3.31
                             9 3.63   2 3.77   3 3.77   4 3.77   1 3.77   7 3.92   6 3.92   7 3.92
   6  0.500  0.000  0.648-  28 2.34  29 2.34  25 2.34  27 2.34  20 3.32  21 3.32  22 3.32  23 3.32
                            10 3.65   2 3.77   3 3.77   4 3.77   1 3.77   5 3.92   5 3.92   8 3.92
   7  0.000  0.500  0.648-  24 2.34  26 2.34  30 2.34  31 2.34  20 3.32  21 3.32  22 3.32  23 3.32
                            11 3.65   2 3.77   3 3.77   4 3.77   1 3.77   5 3.92   5 3.92   8 3.92
   8  0.500  0.500  0.648-  25 2.34  27 2.34  30 2.34  31 2.34  20 3.32  21 3.32  22 3.32  23 3.32
                            12 3.67   2 3.77   3 3.77   4 3.77   1 3.77   7 3.92   6 3.92   6 3.92
   9  0.000  0.000  0.353-  32 2.34  33 2.34  36 2.34  38 2.34  20 3.31  21 3.31  22 3.31  23 3.31
                             5 3.63  13 3.77  14 3.77  15 3.77  16 3.77  10 3.92  11 3.92  11 3.92
  10  0.500  0.000  0.352-  32 2.34  33 2.34  37 2.34  39 2.34  20 3.32  21 3.32  22 3.32  23 3.32
                             6 3.65  13 3.77  14 3.77  15 3.77  16 3.77   9 3.92   9 3.92  12 3.92
  11  0.000  0.500  0.352-  36 2.34  38 2.34  34 2.34  35 2.34  20 3.32  21 3.32  22 3.32  23 3.32
                             7 3.65  13 3.77  14 3.77  15 3.77  16 3.77   9 3.92   9 3.92  12 3.92
  12  0.500  0.500  0.352-  34 2.34  35 2.34  37 2.34  39 2.34  20 3.32  21 3.32  22 3.32  23 3.32
                             8 3.67  13 3.77  14 3.77  15 3.77  16 3.77  10 3.92  11 3.92  10 3.92
  13  0.249  0.249  0.146-  32 2.34  36 2.34  34 2.34  37 2.34  40 3.30  18 3.31  17 3.31  19 3.32
                             1 3.61   9 3.77  11 3.77  10 3.77  12 3.77  14 3.90  15 3.90
  14  0.751  0.249  0.146-  33 2.34  36 2.34  35 2.34  37 2.34  40 3.30  18 3.31  17 3.31  19 3.32
                             2 3.61   9 3.77  11 3.77  10 3.77  12 3.77  13 3.90  16 3.90
  15  0.249  0.751  0.146-  32 2.34  38 2.34  34 2.34  39 2.34  40 3.30  18 3.31  17 3.31  19 3.32
                             3 3.61   9 3.77  11 3.77  10 3.77  12 3.77  13 3.90  16 3.90
  16  0.751  0.751  0.146-  33 2.34  38 2.34  35 2.34  39 2.34  40 3.30  18 3.31  17 3.31  19 3.32
                             4 3.61   9 3.77  11 3.77  10 3.77  12 3.77  14 3.90  15 3.90
  17  0.500  0.000  0.000-   1 3.31   2 3.31   3 3.31   4 3.31  13 3.31  14 3.31  15 3.31  16 3.31

  18  0.000  0.500  0.000-   1 3.31   2 3.31   3 3.31   4 3.31  13 3.31  14 3.31  15 3.31  16 3.31

[...]

  24  0.000  0.250  0.750-   1 2.34   2 2.34   5 2.34   7 2.34
  25  0.500  0.250  0.751-   8 2.34   6 2.34   1 2.34   2 2.34
  26  0.000  0.750  0.750-   3 2.34   4 2.34   5 2.34   7 2.34
  27  0.500  0.750  0.751-   8 2.34   6 2.34   3 2.34   4 2.34
  28  0.250  0.000  0.750-   1 2.34   3 2.34   5 2.34   6 2.34
  29  0.750  0.000  0.750-   2 2.34   4 2.34   5 2.34   6 2.34
  30  0.250  0.500  0.751-   8 2.34   7 2.34   1 2.34   3 2.34
  31  0.750  0.500  0.751-   8 2.34   7 2.34   2 2.34   4 2.34
  32  0.250  0.000  0.250-  13 2.34  15 2.34   9 2.34  10 2.34
  33  0.750  0.000  0.250-  14 2.34  16 2.34   9 2.34  10 2.34
  34  0.250  0.500  0.249-  12 2.34  11 2.34  13 2.34  15 2.34
  35  0.750  0.500  0.249-  12 2.34  11 2.34  14 2.34  16 2.34
  36  0.000  0.250  0.250-  13 2.34  14 2.34   9 2.34  11 2.34
  37  0.500  0.250  0.249-  12 2.34  10 2.34  13 2.34  14 2.34
  38  0.000  0.750  0.250-  15 2.34  16 2.34   9 2.34  11 2.34
  39  0.500  0.750  0.249-  12 2.34  10 2.34  15 2.34  16 2.34
  40  0.000  0.000  0.000-   1 3.30   2 3.30   3 3.30   4 3.30  13 3.30  14 3.30  15 3.30  16 3.30

  LATTYP: Found a simple tetragonal cell.
 ALAT       =     7.8401590487
 C/A-ratio  =     1.5781187256

  Lattice vectors:

 A1 = (   7.8401590487,   0.0000000000,   0.0000000000)
 A2 = (   0.0000000000,   7.8401590487,   0.0000000000)
 A3 = (   0.0000000000,   0.0000000000,  12.3727018064)

Analysis of symmetry for initial positions (statically):
 Subroutine PRICEL returns:
 Original cell was already a primitive cell.

 Routine SETGRP: Setting up the symmetry group for a
 simple tetragonal supercell.

 Subroutine GETGRP returns: Found 16 space group operations
 (whereof 16 operations were pure point group operations)
 out of a pool of 16 trial point group operations.

The static configuration has the point symmetry D_4h.

Analysis of symmetry for dynamics (positions and initial velocities):
 Subroutine PRICEL returns:
 Original cell was already a primitive cell.

 Routine SETGRP: Setting up the symmetry group for a
 simple tetragonal supercell.

 Subroutine GETGRP returns: Found 16 space group operations
 (whereof 16 operations were pure point group operations)
 out of a pool of 16 trial point group operations.

The dynamic configuration has the point symmetry D_4h.

 Subroutine INISYM returns: Found 16 space group operations
 (whereof 16 operations are pure point group operations),
 and found     1 'primitive' translations

                                     Primitive cell

  volume of cell :     760.5264

  direct lattice vectors                    reciprocal lattice vectors
     7.840159049  0.000000000  0.000000000     0.127548433  0.000000000  0.000000000
     0.000000000  7.840159049  0.000000000     0.000000000  0.127548433  0.000000000
     0.000000000  0.000000000 12.372701806     0.000000000  0.000000000  0.080823091

  length of vectors
     7.840159049  7.840159049 12.372701806     0.127548433  0.127548433  0.080823091

  position of ions in fractional coordinates (direct lattice)
     0.248911050  0.248911050  0.854281911
     0.751088950  0.248911050  0.854281911
     0.248911050  0.751088950  0.854281911
     0.751088950  0.751088950  0.854281911
     0.000000000  0.000000000  0.646717676
     0.500000000  0.000000000  0.647515891
     0.000000000  0.500000000  0.647515891
     0.500000000  0.500000000  0.648417280
     0.000000000  0.000000000  0.353282324
     0.500000000  0.000000000  0.352484109
     0.000000000  0.500000000  0.352484109
     0.500000000  0.500000000  0.351582720
     0.248911050  0.248911050  0.145718089
     0.751088950  0.248911050  0.145718089
     0.248911050  0.751088950  0.145718089
     0.751088950  0.751088950  0.145718089
     0.500000000  0.000000000  0.000000000
     0.000000000  0.500000000  0.000000000
     0.500000000  0.500000000  0.000000000
     0.250137567  0.250137567  0.500000000
     0.749862433  0.250137567  0.500000000
     0.250137567  0.749862433  0.500000000
     0.749862433  0.749862433  0.500000000
     0.000000000  0.249535211  0.750473553
     0.500000000  0.249670222  0.751393783
     0.000000000  0.750464789  0.750473553
     0.500000000  0.750329778  0.751393783
     0.249535211  0.000000000  0.750473553
     0.750464789  0.000000000  0.750473553
     0.249670222  0.500000000  0.751393783
     0.750329778  0.500000000  0.751393783
     0.249535211  0.000000000  0.249526447
     0.750464789  0.000000000  0.249526447
     0.249670222  0.500000000  0.248606217
     0.750329778  0.500000000  0.248606217
     0.000000000  0.249535211  0.249526447
     0.500000000  0.249670222  0.248606217
     0.000000000  0.750464789  0.249526447
     0.500000000  0.750329778  0.248606217
     0.000000000  0.000000000  0.000000000

  ion indices of the primitive-cell ions
   primitive index   ion index
                 1           1
                 2           2
                 3           3
                 4           4
                 5           5
                 6           6
                 7           7
                 8           8
                 9           9
                10          10
                11          11
                12          12
                13          13
                14          14
                15          15
                16          16
                17          17
                18          18
                19          19
                20          20
                21          21
                22          22
                23          23
                24          24
                25          25
                26          26
                27          27
                28          28
                29          29
                30          30
                31          31
                32          32
                33          33
                34          34
                35          35
                36          36
                37          37
                38          38
                39          39
                40          40

 KPOINTS: K-Spacing Value to Generate K-Mesh: 0.03

Automatic generation of k-mesh.
 Grid dimensions read from file:
 generate k-points for:    4    4    3

 Generating k-lattice:

[...]
      36 -68.8878      37 -68.8724      38 -68.8878      39 -68.8724      40 -83.7163

 E-fermi :   6.5363     XC(G=0): -10.4977     alpha+bet :-12.0397

 val. band max:        6.3283440969   @ k =   0.0000   0.0000   0.3333
 cond. band min:       6.7334974524   @ k =   0.0000   0.0000   0.0000
 fundamental gap:      0.4051533555
 Fermi energy:         6.5362752588

 k-point     1 :       0.0000    0.0000    0.0000
  band No.  band energies     occupation
      1     -16.7644      2.00000
      2     -16.7627      2.00000
      3     -16.7624      2.00000
      4     -16.7624      2.00000
      5     -16.7483      2.00000
      6     -16.7483      2.00000
      7     -16.7082      2.00000
      8     -16.7068      2.00000
      9     -16.7043      2.00000
     10     -16.7043      2.00000
     11     -16.6969      2.00000
     12     -16.6950      2.00000
     13     -16.6943      2.00000
     14     -16.6943      2.00000
     15     -16.6216      2.00000
     16     -16.6087      2.00000
     17     -16.6087      2.00000
     18     -16.6024      2.00000
     19     -16.5992      2.00000
     20     -16.5978      2.00000
     21     -16.5978      2.00000
     22     -16.5939      2.00000
     23     -16.5928      2.00000
     24     -16.5880      2.00000
     25     -16.5863      2.00000
     26     -16.5855      2.00000
     27     -16.5848      2.00000
     28     -16.5837      2.00000
     29     -16.5837      2.00000
     30     -16.5833      2.00000
     31     -16.5802      2.00000
     32     -16.5802      2.00000
     33     -16.5746      2.00000
     34     -16.5743      2.00000
     35     -16.5736      2.00000
     36     -16.5736      2.00000
     37     -16.5727      2.00000
     38     -16.5711      2.00000
     39     -16.5711      2.00000
     40     -16.5710      2.00000
     41     -16.5704      2.00000
     42     -16.5668      2.00000
     43     -16.5651      2.00000
     44     -16.5513      2.00000
     45     -16.5510      2.00000
     46     -16.5460      2.00000
     47     -16.5456      2.00000
     48     -16.5456      2.00000
     49     -16.5428      2.00000
     50     -16.5415      2.00000
     51     -16.5407      2.00000
     52     -16.5395      2.00000
     53     -16.5382      2.00000
     54     -16.5382      2.00000
     55     -16.5349      2.00000
     56     -16.5349      2.00000
     57     -16.5273      2.00000
     58     -16.5255      2.00000
     59     -16.5255      2.00000
     60     -16.5249      2.00000
[...]
    218      10.4397      0.00000
    219      10.7253      0.00000
    220      10.7357      0.00000
    221      10.7931      0.00000
    222      10.7931      0.00000
    223      10.8750      0.00000
    224      10.8750      0.00000
    225      10.9545      0.00000
    226      10.9546      0.00000
    227      10.9727      0.00000
    228      11.0266      0.00000
    229      11.1606      0.00000
    230      11.2135      0.00000
    231      11.2163      0.00000
    232      11.2920      0.00000

[...]

 k-point    12 :       0.5000    0.5000    0.3333
  band No.  band energies     occupation
      1     -16.7501      2.00000
      2     -16.7473      2.00000
      3     -16.7473      2.00000
      4     -16.7462      2.00000
      5     -16.7448      2.00000
      6     -16.7435      2.00000
      7     -16.7435      2.00000
      8     -16.7409      2.00000
      9     -16.6627      2.00000
     10     -16.6593      2.00000
     11     -16.6589      2.00000
     12     -16.6589      2.00000
     13     -16.6557      2.00000
     14     -16.6522      2.00000
     15     -16.6516      2.00000
     16     -16.6516      2.00000
     17     -16.6051      2.00000
     18     -16.6046      2.00000
     19     -16.6046      2.00000
     20     -16.6035      2.00000
     21     -16.5941      2.00000
     22     -16.5941      2.00000
     23     -16.5931      2.00000
     24     -16.5878      2.00000
     25     -16.5749      2.00000
     26     -16.5735      2.00000
     27     -16.5735      2.00000
     28     -16.5723      2.00000
     29     -16.5717      2.00000
     30     -16.5716      2.00000
     31     -16.5712      2.00000
     32     -16.5712      2.00000
     33     -16.5709      2.00000
     34     -16.5699      2.00000
     35     -16.5697      2.00000
     36     -16.5697      2.00000
     37     -16.5687      2.00000
     38     -16.5687      2.00000
     39     -16.5678      2.00000
     40     -16.5676      2.00000
     41     -16.5545      2.00000
     42     -16.5545      2.00000
     43     -16.5537      2.00000
     44     -16.5537      2.00000
     45     -16.5536      2.00000
     46     -16.5523      2.00000
     47     -16.5509      2.00000
     48     -16.5509      2.00000
     49     -16.5496      2.00000
     50     -16.5493      2.00000
     51     -16.5490      2.00000
     52     -16.5487      2.00000
     53     -16.5487      2.00000
     54     -16.5484      2.00000
     55     -16.5466      2.00000
     56     -16.5461      2.00000
     57     -16.5422      2.00000
     58     -16.5422      2.00000
     59     -16.5405      2.00000
     60     -16.5405      2.00000
[...]
    218      10.6544      0.00000
    219      10.6730      0.00000
    220      10.6897      0.00000
    221      10.7215      0.00000
    222      10.7215      0.00000
    223      10.7217      0.00000
    224      10.7294      0.00000
    225      11.2994      0.00000
    226      11.3174      0.00000
    227      11.3180      0.00000
    228      11.3823      0.00000
    229      11.3916      0.00000
    230      11.4063      0.00000
    231      11.4257      0.00000
    232      11.5129      0.00000

 soft charge-density along one line, spin component           1
         0         1         2         3         4         5         6         7         8         9
 total charge-density along one line

------------------------ aborting loop because EDIFF is reached ----------------------------------------

  FORCE on cell =-STRESS in cart. coord.  units (eV):
  Direction    XX          YY          ZZ          XY          YZ          ZX
  Alpha Z  1328.23289  1328.23289  1328.23289
  Ewald   -8068.91382 -8068.91382-13304.61911    -0.00000    -0.00000    -0.00000
  Hartree  5390.89534  5390.89534   778.22928    -0.00000    -0.00000    -0.00000
  E(xc)   -1825.77889 -1825.77889 -1827.44678     0.00000    -0.00000     0.00000
  Local   -5524.14913 -5524.14913  4333.25727    -0.00000    -0.00000    -0.00000
  n-local  1576.66672  1584.35730  1586.62436     0.48645    -0.05638     0.11333
  augment  2176.41271  2176.41271  2161.13050     0.00000     0.00000     0.00000
  Kinetic  4938.48062  4947.09759  4944.59183    -3.52152     0.45474    -0.53026
  Fock        0.00000     0.00000     0.00000     0.00000     0.00000     0.00000
  Total       0.00022     0.00022     0.00024     0.00000     0.00000     0.00000
  in kB       0.00047     0.00047     0.00050     0.00000     0.00000     0.00000

 VOLUME and BASIS-vectors are now :
  energy-cutoff  :      520.00
  volume of cell :      760.53
      direct lattice vectors                 reciprocal lattice vectors
     7.840159049  0.000000000  0.000000000     0.127548433  0.000000000  0.000000000
     0.000000000  7.840159049  0.000000000     0.000000000  0.127548433  0.000000000
     0.000000000  0.000000000 12.372701806     0.000000000  0.000000000  0.080823091

  length of vectors
     7.840159049  7.840159049 12.372701806     0.127548433  0.127548433  0.080823091

 FORCES acting on ions
    electron-ion (+dipol)            ewald-force                    non-local-force                 convergence-correction
   -.604E+01 -.604E+01 -.438E+03   0.593E+01 0.593E+01 0.448E+03   0.106E+00 0.106E+00 -.109E+02   -.283E-04 -.283E-04 0.530E-04
   0.604E+01 -.604E+01 -.438E+03   -.593E+01 0.593E+01 0.448E+03   -.106E+00 0.106E+00 -.109E+02   0.283E-04 -.283E-04 0.530E-04
   -.604E+01 0.604E+01 -.438E+03   0.593E+01 -.593E+01 0.448E+03   0.106E+00 -.106E+00 -.109E+02   -.283E-04 0.283E-04 0.530E-04
   0.604E+01 0.604E+01 -.438E+03   -.593E+01 -.593E+01 0.448E+03   -.106E+00 -.106E+00 -.109E+02   0.283E-04 0.283E-04 0.530E-04
   -.175E-13 0.172E-12 0.469E+03   0.284E-13 -.284E-13 -.479E+03   -.405E-18 -.238E-18 0.107E+02   -.139E-12 0.735E-13 -.415E-04
   0.784E-12 -.191E-11 0.467E+03   0.568E-13 -.151E-13 -.478E+03   0.153E-17 0.108E-18 0.107E+02   -.991E-14 0.866E-13 -.428E-04
   -.468E-14 -.237E-11 0.467E+03   -.853E-13 0.284E-13 -.478E+03   -.900E-19 -.161E-19 0.107E+02   -.138E-12 -.145E-13 -.428E-04
   0.803E-12 0.178E-11 0.467E+03   -.199E-12 -.586E-13 -.478E+03   0.815E-18 0.287E-18 0.108E+02   -.162E-13 -.176E-13 -.373E-04
   -.862E-13 -.344E-12 -.469E+03   0.114E-12 -.568E-13 0.479E+03   0.207E-17 0.158E-18 -.107E+02   -.156E-12 0.587E-13 0.415E-04
   0.758E-12 0.175E-11 -.467E+03   0.114E-12 0.178E-13 0.478E+03   -.102E-17 0.608E-19 -.107E+02   -.987E-13 0.248E-13 0.428E-04
   -.411E-13 0.360E-11 -.467E+03   0.568E-13 0.284E-13 0.478E+03   -.779E-19 0.565E-19 -.107E+02   -.167E-12 -.330E-13 0.428E-04
   0.791E-12 -.371E-11 -.467E+03   -.142E-12 -.604E-13 0.478E+03   -.107E-17 0.110E-17 -.108E+02   -.114E-12 -.786E-13 0.373E-04
   -.604E+01 -.604E+01 0.438E+03   0.593E+01 0.593E+01 -.448E+03   0.106E+00 0.106E+00 0.109E+02   -.283E-04 -.283E-04 -.530E-04
   0.604E+01 -.604E+01 0.438E+03   -.593E+01 0.593E+01 -.448E+03   -.106E+00 0.106E+00 0.109E+02   0.283E-04 -.283E-04 -.530E-04
   -.604E+01 0.604E+01 0.438E+03   0.593E+01 -.593E+01 -.448E+03   0.106E+00 -.106E+00 0.109E+02   -.283E-04 0.283E-04 -.530E-04
   0.604E+01 0.604E+01 0.438E+03   -.593E+01 -.593E+01 -.448E+03   -.106E+00 -.106E+00 0.109E+02   0.283E-04 0.283E-04 -.530E-04
   0.332E-13 0.357E-13 0.363E-12   -.568E-13 0.426E-13 -.284E-13   -.349E-24 -.116E-24 0.497E-25   -.978E-13 0.415E-13 -.268E-13
   -.204E-13 0.121E-13 0.523E-14   0.284E-13 -.142E-13 -.426E-13   -.899E-26 -.473E-24 -.410E-24   0.996E-13 -.451E-13 -.257E-13
   0.344E-13 -.565E-12 0.317E-12   0.568E-13 0.000E+00 -.391E-13   -.434E-25 -.469E-25 0.786E-25   -.102E-12 -.465E-13 -.266E-13
   -.209E+01 -.209E+01 -.375E-07   0.210E+01 0.210E+01 -.206E-13   -.105E-01 -.105E-01 -.314E-20   -.162E-05 -.162E-05 0.814E-13
   0.209E+01 -.209E+01 -.153E-11   -.210E+01 0.210E+01 0.362E-13   0.105E-01 -.105E-01 -.167E-20   0.162E-05 -.162E-05 0.948E-13
   -.209E+01 0.209E+01 -.122E-11   0.210E+01 -.210E+01 0.696E-15   -.105E-01 0.105E-01 -.655E-20   -.162E-05 0.162E-05 0.799E-13
   0.209E+01 0.209E+01 0.375E-07   -.210E+01 -.210E+01 0.256E-13   0.105E-01 0.105E-01 0.694E-20   0.162E-05 0.162E-05 0.952E-13
   -.393E-13 -.227E+01 0.855E+01   -.284E-13 0.226E+01 -.869E+01   0.131E-18 0.208E-02 0.147E+00   0.801E-13 -.286E-05 0.480E-05
   0.270E-12 -.166E+01 0.389E+01   0.284E-13 0.164E+01 -.374E+01   0.177E-18 0.156E-01 -.143E+00   -.606E-13 -.109E-05 -.309E-05
   -.271E-13 0.227E+01 0.855E+01   -.711E-13 -.226E+01 -.869E+01   0.173E-18 -.208E-02 0.147E+00   0.647E-13 0.286E-05 0.480E-05
   0.261E-12 0.166E+01 0.389E+01   0.284E-13 -.164E+01 -.374E+01   -.457E-19 -.156E-01 -.143E+00   -.449E-13 0.109E-05 -.309E-05
   -.227E+01 -.241E-12 0.855E+01   0.226E+01 0.142E-13 -.869E+01   0.208E-02 0.348E-18 0.147E+00   -.286E-05 0.578E-13 0.480E-05
   0.227E+01 -.691E-12 0.855E+01   -.226E+01 -.142E-13 -.869E+01   -.208E-02 0.330E-18 0.147E+00   0.286E-05 0.482E-13 0.480E-05
   -.166E+01 0.136E-11 0.389E+01   0.164E+01 -.355E-13 -.374E+01   0.156E-01 -.394E-18 -.143E+00   -.109E-05 -.297E-13 -.309E-05
   0.166E+01 -.527E-11 0.389E+01   -.164E+01 0.000E+00 -.374E+01   -.156E-01 0.361E-19 -.143E+00   0.109E-05 -.694E-14 -.309E-05
   -.227E+01 0.580E-12 -.855E+01   0.226E+01 0.142E-13 0.869E+01   0.208E-02 0.509E-18 -.147E+00   -.286E-05 0.454E-14 -.480E-05
   0.227E+01 0.167E-12 -.855E+01   -.226E+01 0.000E+00 0.869E+01   -.208E-02 0.118E-18 -.147E+00   0.286E-05 0.947E-14 -.480E-05
   -.166E+01 0.794E-12 -.389E+01   0.164E+01 0.284E-13 0.374E+01   0.156E-01 0.500E-19 0.143E+00   -.109E-05 -.490E-13 0.309E-05
   0.166E+01 -.332E-11 -.389E+01   -.164E+01 -.711E-13 0.374E+01   -.156E-01 -.475E-18 0.143E+00   0.109E-05 -.691E-13 0.309E-05
   -.187E-13 -.227E+01 -.855E+01   -.568E-13 0.226E+01 0.869E+01   -.146E-18 0.208E-02 -.147E+00   -.156E-13 -.286E-05 -.480E-05
   0.234E-12 -.166E+01 -.389E+01   0.284E-13 0.164E+01 0.374E+01   0.333E-19 0.156E-01 0.143E+00   -.141E-12 -.109E-05 0.309E-05
   -.327E-13 0.227E+01 -.855E+01   -.142E-13 -.226E+01 0.869E+01   -.377E-18 -.208E-02 -.147E+00   -.204E-14 0.286E-05 -.480E-05
   0.259E-12 0.166E+01 -.389E+01   0.000E+00 -.164E+01 0.374E+01   0.281E-18 -.156E-01 0.143E+00   -.155E-12 0.109E-05 0.309E-05
   -.138E-13 0.550E-14 0.626E-14   0.000E+00 0.000E+00 -.249E-13   -.634E-25 0.761E-25 0.173E-25   0.982E-13 0.424E-13 -.202E-13
   0.220E-10 -.985E-11 0.281E-09   0.114E-12 0.533E-14 -.817E-13   0.275E-16 0.572E-16 -.358E-14   -.625E-12 0.566E-12 0.609E-12

 POSITION                                       TOTAL-FORCE (eV/Angst)
      1.95150      1.95150     10.56978        -0.000001     -0.000001      0.000009
      5.88866      1.95150     10.56978         0.000001     -0.000001      0.000009
      1.95150      5.88866     10.56978        -0.000001      0.000001      0.000009
      5.88866      5.88866     10.56978         0.000001      0.000001      0.000009
      0.00000      0.00000      8.00164        -0.000000     -0.000000     -0.000001
      3.92008      0.00000      8.01152        -0.000000     -0.000000     -0.000004
      0.00000      3.92008      8.01152        -0.000000     -0.000000     -0.000004
      3.92008      3.92008      8.02267        -0.000000     -0.000000     -0.000010
      0.00000      0.00000      4.37106        -0.000000     -0.000000      0.000001
      3.92008      0.00000      4.36118        -0.000000     -0.000000      0.000004
      0.00000      3.92008      4.36118        -0.000000     -0.000000      0.000004
      3.92008      3.92008      4.35003        -0.000000     -0.000000      0.000010
      1.95150      1.95150      1.80293        -0.000001     -0.000001     -0.000009
      5.88866      1.95150      1.80293         0.000001     -0.000001     -0.000009
      1.95150      5.88866      1.80293        -0.000001      0.000001     -0.000009
      5.88866      5.88866      1.80293         0.000001      0.000001     -0.000009
      3.92008      0.00000      0.00000        -0.000000     -0.000000      0.000000
      0.00000      3.92008      0.00000        -0.000000     -0.000000      0.000000
      3.92008      3.92008      0.00000        -0.000000     -0.000000      0.000000
      1.96112      1.96112      6.18635        -0.000006     -0.000006      0.000000
      5.87904      1.96112      6.18635         0.000006     -0.000006      0.000000
      1.96112      5.87904      6.18635        -0.000006      0.000006      0.000000
      5.87904      5.87904      6.18635         0.000006      0.000006      0.000000
      0.00000      1.95640      9.28539        -0.000000      0.000001      0.000007
      3.92008      1.95745      9.29677        -0.000000      0.000002      0.000002
      0.00000      5.88376      9.28539        -0.000000     -0.000001      0.000007
      3.92008      5.88270      9.29677        -0.000000     -0.000002      0.000002
      1.95640      0.00000      9.28539         0.000001     -0.000000      0.000007
      5.88376      0.00000      9.28539        -0.000001     -0.000000      0.000007
      1.95745      3.92008      9.29677         0.000002     -0.000000      0.000002
      5.88270      3.92008      9.29677        -0.000002     -0.000000      0.000002
      1.95640      0.00000      3.08732         0.000001     -0.000000     -0.000007
      5.88376      0.00000      3.08732        -0.000001     -0.000000     -0.000007
      1.95745      3.92008      3.07593         0.000002     -0.000000     -0.000002
      5.88270      3.92008      3.07593        -0.000002     -0.000000     -0.000002
      0.00000      1.95640      3.08732        -0.000000      0.000001     -0.000007
      3.92008      1.95745      3.07593        -0.000000      0.000002     -0.000002
      0.00000      5.88376      3.08732        -0.000000     -0.000001     -0.000007
      3.92008      5.88270      3.07593        -0.000000     -0.000002     -0.000002
      0.00000      0.00000      0.00000        -0.000000     -0.000000      0.000000
    total drift:                                0.000000     -0.000000      0.000000

  FREE ENERGIE OF THE ION-ELECTRON SYSTEM (eV)
  free  energy   TOTEN  =      -208.85961921 eV

  energy  without entropy=     -208.85961921  energy(sigma->0) =     -208.85961921

 reached required accuracy - stopping structural energy minimisation