 vasp.6.4.3 19Mar24 (build Apr 09 2025 20:43:19) complex

 executed on             LinuxIFC date 2025.04.13  03:43:41

 INCAR:
   PREC = Accurate
   IBRION = 2
   NSW = 100
   NELMIN = 5
   ISIF = 2
   ENCUT = 520
   EDIFF = 1.000000e-08
   EDIFFG = -1.000000e-5
   ISMEAR = 0
   SIGMA = 0.05
   IALGO = 38
   LREAL = .FALSE.
   ADDGRID = .TRUE.
   LWAVE = .FALSE.
   LCHARG = .FALSE.
   NCORE = 9

 POTCAR:    PAW_PBE Bi_d 06Sep2000
 POTCAR:    PAW_PBE Se 06Sep2000
 POTCAR:    PAW_PBE O 08Apr2002
 POTCAR:    PAW_PBE S 06Sep2000
 POTCAR:    PAW_PBE Bi_d 06Sep2000
   VRHFIN =Bi:

   TITEL  = PAW_PBE Bi_d 06Sep2000
   POMASS =  208.980; ZVAL   =   15.000    mass and valenz
   ENMAX  =  242.839; ENMIN  =  182.129 eV

   TITEL  = PAW_PBE Se 06Sep2000
   POMASS =   78.960; ZVAL   =    6.000    mass and valenz
   ENMAX  =  211.555; ENMIN  =  158.666 eV

   TITEL  = PAW_PBE O 08Apr2002
   POMASS =   16.000; ZVAL   =    6.000    mass and valenz
   ENMAX  =  400.000; ENMIN  =  300.000 eV

   TITEL  = PAW_PBE S 06Sep2000
   POMASS =   32.066; ZVAL   =    6.000    mass and valenz
   ENMAX  =  258.689; ENMIN  =  194.016 eV

  PAW_PBE Bi_d 06Sep2000                :
  PAW_PBE Se 06Sep2000                  :
  PAW_PBE O 08Apr2002                   :
  PAW_PBE S 06Sep2000                   :

 POSCAR: generated by phonopy
  positions in direct lattice
  velocities in cartesian coordinates

 exchange-correlation table for PE
   RHO(1)=    0.500       N(1)  =     2000
   RHO(2)=  100.500       N(2)  =     4000

 ion  position               nearest neighbor table
   1  0.249  0.249  0.858-  28 2.30  24 2.30  25 2.31  30 2.31  40 3.19  18 3.20  17 3.20  19 3.21
                            13 3.43   5 3.73   7 3.74   6 3.74   8 3.74   3 3.80   2 3.80   3 3.84
   2  0.751  0.249  0.858-  29 2.30  24 2.30  25 2.31  31 2.31  40 3.19  18 3.20  17 3.20  19 3.21
                            14 3.43   5 3.73   7 3.74   6 3.74   8 3.74   4 3.80   1 3.80   4 3.84
   3  0.249  0.751  0.858-  28 2.30  26 2.30  27 2.31  30 2.31  40 3.19  18 3.20  17 3.20  19 3.21
                            15 3.43   5 3.73   7 3.74   6 3.74   8 3.74   4 3.80   1 3.80   4 3.84
   4  0.751  0.751  0.858-  29 2.30  26 2.30  27 2.31  31 2.31  40 3.19  18 3.20  17 3.20  19 3.21
                            16 3.43   5 3.73   7 3.74   6 3.74   8 3.74   3 3.80   2 3.80   2 3.84
   5  0.000  0.000  0.643-  24 2.30  26 2.30  28 2.30  29 2.30  20 3.21  21 3.21  22 3.21  23 3.21
                             9 3.45   2 3.73   3 3.73   4 3.73   1 3.73   7 3.82   6 3.82   7 3.82
   6  0.500  0.000  0.644-  28 2.30  29 2.30  25 2.31  27 2.31  20 3.21  21 3.21  22 3.21  23 3.21
                            10 3.47   2 3.74   3 3.74   4 3.74   1 3.74   5 3.82   5 3.82   8 3.82
   7  0.000  0.500  0.644-  24 2.30  26 2.30  30 2.31  31 2.31  20 3.21  21 3.21  22 3.21  23 3.21
                            11 3.47   2 3.74   3 3.74   4 3.74   1 3.74   5 3.82   5 3.82   8 3.82
   8  0.500  0.500  0.645-  25 2.31  27 2.31  30 2.31  31 2.31  20 3.22  21 3.22  22 3.22  23 3.22
                            12 3.50   2 3.74   3 3.74   4 3.74   1 3.74   7 3.82   6 3.82   6 3.82
   9  0.000  0.000  0.357-  32 2.30  33 2.30  36 2.30  38 2.30  20 3.21  21 3.21  22 3.21  23 3.21
                             5 3.45  13 3.73  14 3.73  15 3.73  16 3.73  10 3.82  11 3.82  11 3.82
  10  0.500  0.000  0.356-  32 2.30  33 2.30  37 2.31  39 2.31  20 3.21  21 3.21  22 3.21  23 3.21
                             6 3.47  13 3.74  14 3.74  15 3.74  16 3.74   9 3.82   9 3.82  12 3.82
  11  0.000  0.500  0.356-  36 2.30  38 2.30  34 2.31  35 2.31  20 3.21  21 3.21  22 3.21  23 3.21
                             7 3.47  13 3.74  14 3.74  15 3.74  16 3.74   9 3.82   9 3.82  12 3.82
  12  0.500  0.500  0.355-  34 2.31  35 2.31  37 2.31  39 2.31  20 3.22  21 3.22  22 3.22  23 3.22
                             8 3.50  13 3.74  14 3.74  15 3.74  16 3.74  10 3.82  11 3.82  10 3.82
  13  0.249  0.249  0.142-  32 2.30  36 2.30  34 2.31  37 2.31  40 3.19  18 3.20  17 3.20  19 3.21
                             1 3.43   9 3.73  10 3.74  11 3.74  12 3.74  14 3.80  15 3.80  15 3.84
  14  0.751  0.249  0.142-  33 2.30  36 2.30  35 2.31  37 2.31  40 3.19  18 3.20  17 3.20  19 3.21
                             2 3.43   9 3.73  10 3.74  11 3.74  12 3.74  13 3.80  16 3.80  16 3.84
  15  0.249  0.751  0.142-  32 2.30  38 2.30  34 2.31  39 2.31  40 3.19  18 3.20  17 3.20  19 3.21
                             3 3.43   9 3.73  10 3.74  11 3.74  12 3.74  13 3.80  16 3.80  16 3.84
  16  0.751  0.751  0.142-  33 2.30  38 2.30  35 2.31  39 2.31  40 3.19  18 3.20  17 3.20  19 3.21
                             4 3.43   9 3.73  10 3.74  11 3.74  12 3.74  14 3.80  15 3.80  14 3.84
  17  0.500  0.000  0.000-   1 3.20   2 3.20   3 3.20   4 3.20  13 3.20  14 3.20  15 3.20  16 3.20

  18  0.000  0.500  0.000-   1 3.20   2 3.20   3 3.20   4 3.20  13 3.20  14 3.20  15 3.20  16 3.20

[...]

  24  0.000  0.249  0.750-   1 2.30   2 2.30   5 2.30   7 2.30
  25  0.500  0.250  0.752-   8 2.31   6 2.31   1 2.31   2 2.31
  26  0.000  0.751  0.750-   3 2.30   4 2.30   5 2.30   7 2.30
  27  0.500  0.750  0.752-   8 2.31   6 2.31   3 2.31   4 2.31
  28  0.249  0.000  0.750-   1 2.30   3 2.30   5 2.30   6 2.30
  29  0.751  0.000  0.750-   2 2.30   4 2.30   5 2.30   6 2.30
  30  0.250  0.500  0.752-   8 2.31   7 2.31   1 2.31   3 2.31
  31  0.750  0.500  0.752-   8 2.31   7 2.31   2 2.31   4 2.31
  32  0.249  0.000  0.250-  13 2.30  15 2.30   9 2.30  10 2.30
  33  0.751  0.000  0.250-  14 2.30  16 2.30   9 2.30  10 2.30
  34  0.250  0.500  0.248-  12 2.31  11 2.31  13 2.31  15 2.31
  35  0.750  0.500  0.248-  12 2.31  11 2.31  14 2.31  16 2.31
  36  0.000  0.249  0.250-  13 2.30  14 2.30   9 2.30  11 2.30
  37  0.500  0.250  0.248-  12 2.31  10 2.31  13 2.31  14 2.31
  38  0.000  0.751  0.250-  15 2.30  16 2.30   9 2.30  11 2.30
  39  0.500  0.750  0.248-  12 2.31  10 2.31  15 2.31  16 2.31
  40  0.000  0.000  0.000-   1 3.19   2 3.19   3 3.19   4 3.19  13 3.19  14 3.19  15 3.19  16 3.19

  LATTYP: Found a simple tetragonal cell.
 ALAT       =     7.6441550725
 C/A-ratio  =     1.5781187256

  Lattice vectors:

 A1 = (   7.6441550725,   0.0000000000,   0.0000000000)
 A2 = (   0.0000000000,   7.6441550725,   0.0000000000)
 A3 = (   0.0000000000,   0.0000000000,  12.0633842612)

Analysis of symmetry for initial positions (statically):
 Subroutine PRICEL returns:
 Original cell was already a primitive cell.

 Routine SETGRP: Setting up the symmetry group for a
 simple tetragonal supercell.

 Subroutine GETGRP returns: Found 16 space group operations
 (whereof 16 operations were pure point group operations)
 out of a pool of 16 trial point group operations.

The static configuration has the point symmetry D_4h.

Analysis of symmetry for dynamics (positions and initial velocities):
 Subroutine PRICEL returns:
 Original cell was already a primitive cell.

 Routine SETGRP: Setting up the symmetry group for a
 simple tetragonal supercell.

 Subroutine GETGRP returns: Found 16 space group operations
 (whereof 16 operations were pure point group operations)
 out of a pool of 16 trial point group operations.

The dynamic configuration has the point symmetry D_4h.

 Subroutine INISYM returns: Found 16 space group operations
 (whereof 16 operations are pure point group operations),
 and found     1 'primitive' translations

                                     Primitive cell

  volume of cell :     704.9010

  direct lattice vectors                    reciprocal lattice vectors
     7.644155072  0.000000000  0.000000000     0.130818905  0.000000000  0.000000000
     0.000000000  7.644155072  0.000000000     0.000000000  0.130818905  0.000000000
     0.000000000  0.000000000 12.063384261     0.000000000  0.000000000  0.082895478

  length of vectors
     7.644155072  7.644155072 12.063384261     0.130818905  0.130818905  0.082895478

  position of ions in fractional coordinates (direct lattice)
     0.248727613  0.248727613  0.857750743
     0.751272387  0.248727613  0.857750743
     0.248727613  0.751272387  0.857750743
     0.751272387  0.751272387  0.857750743
     0.000000000  0.000000000  0.643110259
     0.500000000  0.000000000  0.644000477
     0.000000000  0.500000000  0.644000477
     0.500000000  0.500000000  0.644972476
     0.000000000  0.000000000  0.356889741
     0.500000000  0.000000000  0.355999523
     0.000000000  0.500000000  0.355999523
     0.500000000  0.500000000  0.355027524
     0.248727613  0.248727613  0.142249257
     0.751272387  0.248727613  0.142249257
     0.248727613  0.751272387  0.142249257
     0.751272387  0.751272387  0.142249257
     0.500000000  0.000000000  0.000000000
     0.000000000  0.500000000  0.000000000
     0.500000000  0.500000000  0.000000000
     0.250435563  0.250435563  0.500000000
     0.749564437  0.250435563  0.500000000
     0.250435563  0.749564437  0.500000000
     0.749564437  0.749564437  0.500000000
     0.000000000  0.249409685  0.750274132
     0.500000000  0.249542499  0.751546826
     0.000000000  0.750590315  0.750274132
     0.500000000  0.750457501  0.751546826
     0.249409685  0.000000000  0.750274132
     0.750590315  0.000000000  0.750274132
     0.249542499  0.500000000  0.751546826
     0.750457501  0.500000000  0.751546826
     0.249409685  0.000000000  0.249725868
     0.750590315  0.000000000  0.249725868
     0.249542499  0.500000000  0.248453174
     0.750457501  0.500000000  0.248453174
     0.000000000  0.249409685  0.249725868
     0.500000000  0.249542499  0.248453174
     0.000000000  0.750590315  0.249725868
     0.500000000  0.750457501  0.248453174
     0.000000000  0.000000000  0.000000000

  ion indices of the primitive-cell ions
   primitive index   ion index
                 1           1
                 2           2
                 3           3
                 4           4
                 5           5
                 6           6
                 7           7
                 8           8
                 9           9
                10          10
                11          11
                12          12
                13          13
                14          14
                15          15
                16          16
                17          17
                18          18
                19          19
                20          20
                21          21
                22          22
                23          23
                24          24
                25          25
                26          26
                27          27
                28          28
                29          29
                30          30
                31          31
                32          32
                33          33
                34          34
                35          35
                36          36
                37          37
                38          38
                39          39
                40          40

 KPOINTS: K-Spacing Value to Generate K-Mesh: 0.03

Automatic generation of k-mesh.
 Grid dimensions read from file:
 generate k-points for:    4    4    3

 Generating k-lattice:

[...]
 next E    =  -207.651428   (d E  =  -0.00000)

[...]

 d Force =-0.1704168E-10[-0.469E-10, 0.128E-10]  d Energy =-0.8822099E-10 0.712E-10
 d Force = 0.5163514E-03[ 0.516E-03, 0.516E-03]  d Ewald  = 0.5163513E-03 0.113E-09

--------------------------------------- Ionic step        9  -------------------------------------------

[...]

 eigenvalue-minimisations  :  3040
 total energy-change (2. order) :-0.2182787E-10  (-0.1895523E-11)
 number of electron     384.0000004 magnetization
 augmentation part       95.0388367 magnetization

 Broyden mixing:
  rms(total) = 0.21972E-06    rms(broyden)= 0.21968E-06
  rms(prec ) = 0.25714E-06
  weight for this iteration     100.00

 eigenvalues of (default mixing * dielectric matrix)
  average eigenvalue GAMMA=   0.9320
  1.1896  1.1896  0.4168

[...]

--------------------------------------- Iteration      9(   5)  ---------------------------------------

 eigenvalue-minimisations  :  3008
 total energy-change (2. order) : 0.1273293E-10  (-0.1089788E-11)
 number of electron     384.0000004 magnetization
 augmentation part       95.0388367 magnetization

 Free energy of the ion-electron system (eV)
  alpha Z        PSCENC =      1433.04682846
  Ewald energy   TEWEN  =    -30513.45012237
  -Hartree energ DENC   =    -10922.41693944
  -exchange      EXHF   =         0.00000000
  -V(xc)+E(xc)   XCENC  =      1259.14791396
  PAW double counting   =     36876.84612072   -36279.49519333
  entropy T*S    EENTRO =        -0.00000000
  eigenvalues    EBANDS =     -2402.98188149
  atomic energy  EATOM  =     40341.65184589
  Solvation  Ediel_sol  =         0.00000000
  free energy    TOTEN  =      -207.65142760 eV

  energy without entropy =     -207.65142760  energy(sigma->0) =     -207.65142760

 average (electrostatic) potential at core
  the test charge radii are     1.0856  1.0808  0.7215  0.9698
  (the norm of the test charge is              1.0000)
       1-103.7199       2-103.7199       3-103.7199       4-103.7199       5-103.7145
       6-103.7170       7-103.7170       8-103.7075       9-103.7145      10-103.7170
      11-103.7170      12-103.7075      13-103.7199      14-103.7199      15-103.7199
      16-103.7199      17 -49.8135      18 -49.8135      19 -49.7760      20 -49.8014
      21 -49.8014      22 -49.8014      23 -49.8014      24 -68.0066      25 -67.9868
      26 -68.0066      27 -67.9868      28 -68.0066      29 -68.0066      30 -67.9868
      31 -67.9868      32 -68.0066      33 -68.0066      34 -67.9868      35 -67.9868
      36 -68.0066      37 -67.9868      38 -68.0066      39 -67.9868      40 -82.9398

 E-fermi :   7.3607     XC(G=0): -10.8897     alpha+bet :-12.9897

 val. band max:        7.0750180562   @ k =   0.0000   0.0000   0.3333
 cond. band min:       7.7802166110   @ k =   0.0000   0.0000   0.0000
 fundamental gap:      0.7051985548
 Fermi energy:         7.3606610281

[...]

 k-point    12 :       0.5000    0.5000    0.3333
  band No.  band energies     occupation
      1     -15.8065      2.00000
      2     -15.8020      2.00000
      3     -15.8020      2.00000
      4     -15.7999      2.00000
      5     -15.7976      2.00000
      6     -15.7955      2.00000
      7     -15.7955      2.00000
      8     -15.7910      2.00000
      9     -15.7018      2.00000
     10     -15.6974      2.00000
     11     -15.6974      2.00000
     12     -15.6968      2.00000
     13     -15.6896      2.00000
     14     -15.6848      2.00000
     15     -15.6848      2.00000
     16     -15.6846      2.00000
     17     -15.6230      2.00000
     18     -15.6220      2.00000
     19     -15.6220      2.00000
     20     -15.6204      2.00000
     21     -15.6104      2.00000
     22     -15.6089      2.00000
     23     -15.6089      2.00000
     24     -15.5996      2.00000
     25     -15.5855      2.00000
     26     -15.5835      2.00000
     27     -15.5835      2.00000
     28     -15.5810      2.00000
     29     -15.5788      2.00000
     30     -15.5782      2.00000
     31     -15.5771      2.00000
     32     -15.5771      2.00000
     33     -15.5761      2.00000
     34     -15.5760      2.00000
     35     -15.5760      2.00000
     36     -15.5747      2.00000
     37     -15.5742      2.00000
     38     -15.5734      2.00000
     39     -15.5734      2.00000
     40     -15.5726      2.00000
     41     -15.5649      2.00000
     42     -15.5639      2.00000
     43     -15.5639      2.00000
     44     -15.5634      2.00000
     45     -15.5626      2.00000
     46     -15.5626      2.00000
     47     -15.5575      2.00000
     48     -15.5558      2.00000
     49     -15.5510      2.00000
     50     -15.5510      2.00000
     51     -15.5501      2.00000
     52     -15.5501      2.00000
     53     -15.5495      2.00000
     54     -15.5489      2.00000
     55     -15.5476      2.00000
     56     -15.5469      2.00000
     57     -15.5343      2.00000
     58     -15.5334      2.00000
     59     -15.5317      2.00000
     60     -15.5317      2.00000
[...]
    218      11.9814      0.00000
    219      12.0025      0.00000
    220      12.0092      0.00000
    221      12.1333      0.00000
    222      12.1333      0.00000
    223      12.1343      0.00000
    224      12.1546      0.00000
    225      12.6222      0.00000
    226      12.6627      0.00000
    227      12.6627      0.00000
    228      12.6819      0.00000
    229      12.7139      0.00000
    230      12.7139      0.00000
    231      12.7960      0.00000
    232      12.8025      0.00000

 soft charge-density along one line, spin component           1
         0         1         2         3         4         5         6         7         8         9
 total charge-density along one line

------------------------ aborting loop because EDIFF is reached ----------------------------------------

  FORCE on cell =-STRESS in cart. coord.  units (eV):
  Direction    XX          YY          ZZ          XY          YZ          ZX
  Alpha Z  1433.04683  1433.04683  1433.04683
  Ewald   -8782.05916 -8782.05916-12949.44526     0.00000    -0.00000    -0.00000
  Hartree  4906.39639  4906.39639  1109.62417    -0.00000    -0.00000    -0.00000
  E(xc)   -1832.51822 -1832.51822 -1833.67546     0.00000    -0.00000     0.00000
  Local   -4442.47789 -4442.47789  3536.21614    -0.00000    -0.00000     0.00000
  n-local  1592.21042  1597.97183  1606.35072     0.69697    -0.06011     0.13973
  augment  2176.54955  2176.54955  2160.35809    -0.00000     0.00000     0.00000
  Kinetic  4976.08113  4984.17361  4963.94698    -4.06284     0.46825    -0.62738
  Fock        0.00000     0.00000     0.00000     0.00000     0.00000     0.00000
  Total      34.15600    34.15600    26.42222     0.00000     0.00000    -0.00000
  in kB      77.63354    77.63354    60.05536     0.00000     0.00000    -0.00000

 VOLUME and BASIS-vectors are now :
  energy-cutoff  :      520.00
  volume of cell :      704.90
      direct lattice vectors                 reciprocal lattice vectors
     7.644155072  0.000000000  0.000000000     0.130818905  0.000000000  0.000000000
     0.000000000  7.644155072  0.000000000     0.000000000  0.130818905  0.000000000
     0.000000000  0.000000000 12.063384261     0.000000000  0.000000000  0.082895478

  length of vectors
     7.644155072  7.644155072 12.063384261     0.130818905  0.130818905  0.082895478

 FORCES acting on ions
    electron-ion (+dipol)            ewald-force                    non-local-force                 convergence-correction
   -.722E+01 -.722E+01 -.423E+03   0.708E+01 0.708E+01 0.434E+03   0.136E+00 0.136E+00 -.115E+02   -.432E-06 -.432E-06 -.114E-05
   0.722E+01 -.722E+01 -.423E+03   -.708E+01 0.708E+01 0.434E+03   -.136E+00 0.136E+00 -.115E+02   0.432E-06 -.432E-06 -.114E-05
   -.722E+01 0.722E+01 -.423E+03   0.708E+01 -.708E+01 0.434E+03   0.136E+00 -.136E+00 -.115E+02   -.432E-06 0.432E-06 -.114E-05
   0.722E+01 0.722E+01 -.423E+03   -.708E+01 -.708E+01 0.434E+03   -.136E+00 -.136E+00 -.115E+02   0.432E-06 0.432E-06 -.114E-05
   -.686E-13 -.131E-11 0.455E+03   -.284E-13 -.853E-13 -.467E+03   -.486E-18 -.121E-17 0.114E+02   -.525E-11 0.866E-12 -.991E-06
   0.724E-12 -.410E-11 0.453E+03   0.142E-12 -.411E-13 -.464E+03   0.352E-18 0.107E-17 0.113E+02   0.503E-11 -.283E-11 -.134E-05
   -.476E-13 -.159E-11 0.453E+03   -.114E-12 0.853E-13 -.464E+03   -.595E-18 0.345E-18 0.113E+02   -.201E-11 -.742E-12 -.134E-05
   0.765E-12 0.130E-11 0.452E+03   0.568E-13 0.264E-13 -.464E+03   0.772E-18 -.345E-19 0.113E+02   0.175E-11 -.185E-11 -.151E-05
   -.280E-13 0.131E-11 -.455E+03   -.114E-12 0.284E-13 0.467E+03   -.117E-17 -.360E-18 -.114E+02   0.259E-11 0.111E-11 0.991E-06
   0.771E-12 0.411E-11 -.453E+03   0.568E-13 -.176E-13 0.464E+03   -.606E-18 0.946E-18 -.113E+02   -.261E-11 0.605E-12 0.134E-05
   -.113E-12 0.280E-11 -.453E+03   -.199E-12 0.284E-13 0.464E+03   0.323E-18 0.396E-18 -.113E+02   -.378E-11 -.170E-11 0.134E-05
   0.711E-12 0.371E-11 -.452E+03   0.142E-12 0.955E-14 0.464E+03   -.781E-18 -.113E-18 -.113E+02   0.357E-11 -.142E-11 0.151E-05
   -.722E+01 -.722E+01 0.423E+03   0.708E+01 0.708E+01 -.434E+03   0.136E+00 0.136E+00 0.115E+02   -.432E-06 -.432E-06 0.114E-05
   0.722E+01 -.722E+01 0.423E+03   -.708E+01 0.708E+01 -.434E+03   -.136E+00 0.136E+00 0.115E+02   0.432E-06 -.432E-06 0.114E-05
   -.722E+01 0.722E+01 0.423E+03   0.708E+01 -.708E+01 -.434E+03   0.136E+00 -.136E+00 0.115E+02   -.432E-06 0.432E-06 0.114E-05
   0.722E+01 0.722E+01 0.423E+03   -.708E+01 -.708E+01 -.434E+03   -.136E+00 -.136E+00 0.115E+02   0.432E-06 0.432E-06 0.114E-05
   0.401E-13 0.140E-13 -.843E-12   -.284E-13 -.284E-13 0.329E-11   0.130E-26 0.165E-27 -.120E-26   0.163E-12 0.712E-12 0.230E-11
   -.243E-13 0.232E-13 -.122E-11   -.568E-13 -.284E-13 0.330E-11   -.260E-27 0.177E-26 -.386E-27   0.149E-11 -.277E-12 0.721E-13
   0.399E-13 -.491E-12 -.153E-11   0.284E-13 0.711E-13 0.747E-11   -.299E-27 0.473E-27 0.509E-27   -.149E-11 -.432E-12 0.347E-12
   -.211E+01 -.211E+01 -.965E-07   0.212E+01 0.212E+01 -.955E-12   -.100E-01 -.100E-01 0.391E-20   -.699E-06 -.699E-06 -.839E-12
   0.211E+01 -.211E+01 -.564E-11   -.212E+01 0.212E+01 -.976E-12   0.100E-01 -.100E-01 0.100E-19   0.699E-06 -.699E-06 -.560E-12
   -.211E+01 0.211E+01 0.397E-13   0.212E+01 -.212E+01 -.976E-12   -.100E-01 0.100E-01 -.226E-20   -.699E-06 0.699E-06 -.450E-12
   0.211E+01 0.211E+01 0.965E-07   -.212E+01 -.212E+01 -.102E-11   0.100E-01 0.100E-01 0.253E-20   0.699E-06 0.699E-06 -.707E-12
   -.481E-14 -.281E+01 0.914E+01   -.711E-13 0.282E+01 -.929E+01   -.376E-18 -.162E-01 0.148E+00   -.811E-12 -.178E-05 -.152E-05
   0.230E-12 -.222E+01 0.360E+01   0.000E+00 0.222E+01 -.346E+01   -.230E-18 -.566E-02 -.141E+00   0.762E-12 -.740E-06 -.138E-05
   0.186E-13 0.281E+01 0.914E+01   -.568E-13 -.282E+01 -.929E+01   0.721E-19 0.162E-01 0.148E+00   -.585E-12 0.178E-05 -.152E-05
   0.220E-12 0.222E+01 0.360E+01   0.142E-13 -.222E+01 -.346E+01   0.225E-19 0.566E-02 -.141E+00   0.537E-12 0.740E-06 -.138E-05
   -.281E+01 0.186E-11 0.914E+01   0.282E+01 -.284E-13 -.929E+01   -.162E-01 0.321E-18 0.148E+00   -.178E-05 -.551E-13 -.152E-05
   0.281E+01 0.158E-11 0.914E+01   -.282E+01 -.711E-13 -.929E+01   0.162E-01 -.185E-18 0.148E+00   0.178E-05 0.150E-11 -.152E-05
   -.222E+01 0.372E-11 0.360E+01   0.222E+01 0.142E-13 -.346E+01   -.566E-02 0.227E-19 -.141E+00   -.740E-06 -.186E-12 -.138E-05
   0.222E+01 0.221E-12 0.360E+01   -.222E+01 0.711E-13 -.346E+01   0.566E-02 -.298E-19 -.141E+00   0.740E-06 0.803E-12 -.138E-05
   -.281E+01 -.161E-11 -.914E+01   0.282E+01 -.711E-14 0.929E+01   -.162E-01 0.149E-18 -.148E+00   -.178E-05 0.740E-12 0.152E-05
   0.281E+01 -.193E-11 -.914E+01   -.282E+01 -.284E-13 0.929E+01   0.162E-01 -.150E-18 -.148E+00   0.178E-05 0.333E-12 0.152E-05
   -.222E+01 0.140E-11 -.360E+01   0.222E+01 -.568E-13 0.346E+01   -.566E-02 0.220E-19 0.141E+00   -.740E-06 -.912E-12 0.138E-05
   0.222E+01 -.443E-11 -.360E+01   -.222E+01 -.142E-13 0.346E+01   0.566E-02 -.638E-20 0.141E+00   0.740E-06 -.215E-11 0.138E-05
   -.750E-13 -.281E+01 -.914E+01   -.142E-13 0.282E+01 0.929E+01   -.714E-20 -.162E-01 -.148E+00   0.196E-11 -.178E-05 0.152E-05
   0.274E-12 -.222E+01 -.360E+01   0.284E-13 0.222E+01 0.346E+01   0.449E-18 -.566E-02 0.141E+00   -.204E-11 -.740E-06 0.138E-05
   -.688E-13 0.281E+01 -.914E+01   -.114E-12 -.282E+01 0.929E+01   -.222E-18 0.162E-01 -.148E+00   0.268E-11 0.178E-05 0.152E-05
   0.280E-12 0.222E+01 -.360E+01   0.426E-13 -.222E+01 0.346E+01   0.242E-18 0.566E-02 0.141E+00   -.275E-11 0.740E-06 0.138E-05
   -.212E-13 -.151E-13 -.183E-11   0.568E-13 -.711E-13 0.224E-11   -.158E-26 0.424E-26 0.377E-26   -.210E-12 0.300E-12 0.197E-11
   0.125E-10 0.308E-10 -.117E-09   -.142E-13 -.711E-13 -.107E-13   0.247E-16 -.226E-16 -.547E-14   -.617E-12 -.858E-11 -.201E-10

 POSITION                                       TOTAL-FORCE (eV/Angst)
      1.90131      1.90131     10.34738         0.000002      0.000002     -0.000003
      5.74284      1.90131     10.34738        -0.000002      0.000002     -0.000003
      1.90131      5.74284     10.34738         0.000002     -0.000002     -0.000003
      5.74284      5.74284     10.34738        -0.000002     -0.000002     -0.000003
      0.00000      0.00000      7.75809        -0.000000     -0.000000     -0.000003
      3.82208      0.00000      7.76883         0.000000      0.000000     -0.000003
      0.00000      3.82208      7.76883        -0.000000      0.000000     -0.000003
      3.82208      3.82208      7.78055        -0.000000     -0.000000     -0.000003
      0.00000      0.00000      4.30530        -0.000000     -0.000000      0.000003
      3.82208      0.00000      4.29456        -0.000000      0.000000      0.000003
      0.00000      3.82208      4.29456         0.000000      0.000000      0.000003
      3.82208      3.82208      4.28283         0.000000     -0.000000      0.000003
      1.90131      1.90131      1.71601         0.000002      0.000002      0.000003
      5.74284      1.90131      1.71601        -0.000002      0.000002      0.000003
      1.90131      5.74284      1.71601         0.000002     -0.000002      0.000003
      5.74284      5.74284      1.71601        -0.000002     -0.000002      0.000003
      3.82208      0.00000      0.00000         0.000000      0.000000      0.000000
      0.00000      3.82208      0.00000         0.000000     -0.000000      0.000000
      3.82208      3.82208      0.00000        -0.000000     -0.000000      0.000000
      1.91437      1.91437      6.03169         0.000001      0.000001      0.000000
      5.72979      1.91437      6.03169        -0.000001      0.000001      0.000000
      1.91437      5.72979      6.03169         0.000001     -0.000001      0.000000
      5.72979      5.72979      6.03169        -0.000001     -0.000001      0.000000
      0.00000      1.90653      9.05085         0.000000     -0.000001      0.000007
      3.82208      1.90754      9.06620        -0.000000     -0.000001      0.000009
      0.00000      5.73763      9.05085        -0.000000      0.000001      0.000007
      3.82208      5.73661      9.06620         0.000000      0.000001      0.000009
      1.90653      0.00000      9.05085        -0.000001      0.000000      0.000007
      5.73763      0.00000      9.05085         0.000001     -0.000000      0.000007
      1.90754      3.82208      9.06620        -0.000001     -0.000000      0.000009
      5.73661      3.82208      9.06620         0.000001     -0.000000      0.000009
      1.90653      0.00000      3.01254        -0.000001      0.000000     -0.000007
      5.73763      0.00000      3.01254         0.000001      0.000000     -0.000007
      1.90754      3.82208      2.99719        -0.000001     -0.000000     -0.000009
      5.73661      3.82208      2.99719         0.000001      0.000000     -0.000009
      0.00000      1.90653      3.01254        -0.000000     -0.000001     -0.000007
      3.82208      1.90754      2.99719         0.000000     -0.000001     -0.000009
      0.00000      5.73763      3.01254        -0.000000      0.000001     -0.000007
      3.82208      5.73661      2.99719         0.000000      0.000001     -0.000009
      0.00000      0.00000      0.00000         0.000000     -0.000000      0.000000
    total drift:                                0.000000      0.000000     -0.000000

  FREE ENERGIE OF THE ION-ELECTRON SYSTEM (eV)
  free  energy   TOTEN  =      -207.65142760 eV

  energy  without entropy=     -207.65142760  energy(sigma->0) =     -207.65142760

 d Force = 0.1922244E-10[ 0.160E-11, 0.368E-10]  d Energy = 0.1064109E-09-0.872E-10
 d Force =-0.4053825E-03[-0.405E-03,-0.405E-03]  d Ewald  =-0.4053824E-03-0.255E-10

 reached required accuracy - stopping structural energy minimisation