 vasp.6.4.3 19Mar24 (build Apr 09 2025 20:43:19) complex

 executed on             LinuxIFC date 2025.04.13  16:57:58

 INCAR:
   PREC = Accurate
   IBRION = 2
   NSW = 100
   NELMIN = 5
   ISIF = 2
   ENCUT = 520
   EDIFF = 1.000000e-08
   EDIFFG = -1.000000e-5
   ISMEAR = 0
   SIGMA = 0.05
   IALGO = 38
   LREAL = .FALSE.
   ADDGRID = .TRUE.
   LWAVE = .FALSE.
   LCHARG = .FALSE.
   NCORE = 9

 POTCAR:    PAW_PBE Bi_d 06Sep2000
 POTCAR:    PAW_PBE Se 06Sep2000
 POTCAR:    PAW_PBE O 08Apr2002
 POTCAR:    PAW_PBE S 06Sep2000
 POTCAR:    PAW_PBE Bi_d 06Sep2000
   VRHFIN =Bi:

   TITEL  = PAW_PBE Bi_d 06Sep2000
   POMASS =  208.980; ZVAL   =   15.000    mass and valenz
   ENMAX  =  242.839; ENMIN  =  182.129 eV

   TITEL  = PAW_PBE Se 06Sep2000
   POMASS =   78.960; ZVAL   =    6.000    mass and valenz
   ENMAX  =  211.555; ENMIN  =  158.666 eV

   TITEL  = PAW_PBE O 08Apr2002
   POMASS =   16.000; ZVAL   =    6.000    mass and valenz
   ENMAX  =  400.000; ENMIN  =  300.000 eV

   TITEL  = PAW_PBE S 06Sep2000
   POMASS =   32.066; ZVAL   =    6.000    mass and valenz
   ENMAX  =  258.689; ENMIN  =  194.016 eV

  PAW_PBE Bi_d 06Sep2000                :
  PAW_PBE Se 06Sep2000                  :
  PAW_PBE O 08Apr2002                   :
  PAW_PBE S 06Sep2000                   :

 POSCAR: generated by phonopy
  positions in direct lattice
  velocities in cartesian coordinates

 exchange-correlation table for PE
   RHO(1)=    0.500       N(1)  =     2000
   RHO(2)=  100.500       N(2)  =     4000

 ion  position               nearest neighbor table
   1  0.249  0.249  0.855-  24 2.33  28 2.33  25 2.34  30 2.34  40 3.27  18 3.29  17 3.29  19 3.30
                            13 3.57   5 3.76   7 3.77   6 3.77   8 3.77   3 3.88   2 3.88   3 3.92
   2  0.751  0.249  0.855-  24 2.33  29 2.33  25 2.34  31 2.34  40 3.27  18 3.29  17 3.29  19 3.30
                            14 3.57   5 3.76   7 3.77   6 3.77   8 3.77   4 3.88   1 3.88   4 3.92
   3  0.249  0.751  0.855-  26 2.33  28 2.33  27 2.34  30 2.34  40 3.27  18 3.29  17 3.29  19 3.30
                            15 3.57   5 3.76   7 3.77   6 3.77   8 3.77   4 3.88   1 3.88   4 3.92
   4  0.751  0.751  0.855-  26 2.33  29 2.33  27 2.34  31 2.34  40 3.27  18 3.29  17 3.29  19 3.30
                            16 3.57   5 3.76   7 3.77   6 3.77   8 3.77   3 3.88   2 3.88   2 3.92
   5  0.000  0.000  0.646-  24 2.33  26 2.33  28 2.33  29 2.33  20 3.29  21 3.29  22 3.29  23 3.29
                             9 3.59   2 3.76   3 3.76   4 3.76   1 3.76   7 3.90   6 3.90   7 3.90
   6  0.500  0.000  0.647-  28 2.33  29 2.33  25 2.33  27 2.33  20 3.30  21 3.30  22 3.30  23 3.30
                            10 3.61   2 3.77   3 3.77   4 3.77   1 3.77   5 3.90   5 3.90   8 3.90
   7  0.000  0.500  0.647-  24 2.33  26 2.33  30 2.33  31 2.33  20 3.30  21 3.30  22 3.30  23 3.30
                            11 3.61   2 3.77   3 3.77   4 3.77   1 3.77   5 3.90   5 3.90   8 3.90
   8  0.500  0.500  0.648-  25 2.33  27 2.33  30 2.33  31 2.33  20 3.30  21 3.30  22 3.30  23 3.30
                            12 3.64   2 3.77   3 3.77   4 3.77   1 3.77   7 3.90   6 3.90   6 3.90
   9  0.000  0.000  0.354-  32 2.33  33 2.33  36 2.33  38 2.33  20 3.29  21 3.29  22 3.29  23 3.29
                             5 3.59  13 3.76  14 3.76  15 3.76  16 3.76  10 3.90  11 3.90  11 3.90
  10  0.500  0.000  0.353-  32 2.33  33 2.33  37 2.33  39 2.33  20 3.30  21 3.30  22 3.30  23 3.30
                             6 3.61  13 3.77  14 3.77  15 3.77  16 3.77   9 3.90   9 3.90  12 3.90
  11  0.000  0.500  0.353-  36 2.33  38 2.33  34 2.33  35 2.33  20 3.30  21 3.30  22 3.30  23 3.30
                             7 3.61  13 3.77  14 3.77  15 3.77  16 3.77   9 3.90   9 3.90  12 3.90
  12  0.500  0.500  0.352-  34 2.33  35 2.33  37 2.33  39 2.33  20 3.30  21 3.30  22 3.30  23 3.30
                             8 3.64  13 3.77  14 3.77  15 3.77  16 3.77  10 3.90  11 3.90  10 3.90
  13  0.249  0.249  0.145-  32 2.33  36 2.33  34 2.34  37 2.34  40 3.27  18 3.29  17 3.29  19 3.30
                             1 3.57   9 3.76  10 3.77  11 3.77  12 3.77  14 3.88  15 3.88  15 3.92
  14  0.751  0.249  0.145-  33 2.33  36 2.33  35 2.34  37 2.34  40 3.27  18 3.29  17 3.29  19 3.30
                             2 3.57   9 3.76  10 3.77  11 3.77  12 3.77  13 3.88  16 3.88  16 3.92
  15  0.249  0.751  0.145-  32 2.33  38 2.33  34 2.34  39 2.34  40 3.27  18 3.29  17 3.29  19 3.30
                             3 3.57   9 3.76  10 3.77  11 3.77  12 3.77  13 3.88  16 3.88  16 3.92
  16  0.751  0.751  0.145-  33 2.33  38 2.33  35 2.34  39 2.34  40 3.27  18 3.29  17 3.29  19 3.30
                             4 3.57   9 3.76  10 3.77  11 3.77  12 3.77  14 3.88  15 3.88  14 3.92
  17  0.500  0.000  0.000-   1 3.29   2 3.29   3 3.29   4 3.29  13 3.29  14 3.29  15 3.29  16 3.29

  18  0.000  0.500  0.000-   1 3.29   2 3.29   3 3.29   4 3.29  13 3.29  14 3.29  15 3.29  16 3.29

[...]

  24  0.000  0.250  0.750-   1 2.33   2 2.33   5 2.33   7 2.33
  25  0.500  0.250  0.751-   8 2.33   6 2.33   1 2.34   2 2.34
  26  0.000  0.750  0.750-   3 2.33   4 2.33   5 2.33   7 2.33
  27  0.500  0.750  0.751-   8 2.33   6 2.33   3 2.34   4 2.34
  28  0.250  0.000  0.750-   1 2.33   3 2.33   5 2.33   6 2.33
  29  0.750  0.000  0.750-   2 2.33   4 2.33   5 2.33   6 2.33
  30  0.250  0.500  0.751-   8 2.33   7 2.33   1 2.34   3 2.34
  31  0.750  0.500  0.751-   8 2.33   7 2.33   2 2.34   4 2.34
  32  0.250  0.000  0.250-  13 2.33  15 2.33   9 2.33  10 2.33
  33  0.750  0.000  0.250-  14 2.33  16 2.33   9 2.33  10 2.33
  34  0.250  0.500  0.249-  12 2.33  11 2.33  13 2.34  15 2.34
  35  0.750  0.500  0.249-  12 2.33  11 2.33  14 2.34  16 2.34
  36  0.000  0.250  0.250-  13 2.33  14 2.33   9 2.33  11 2.33
  37  0.500  0.250  0.249-  12 2.33  10 2.33  13 2.34  14 2.34
  38  0.000  0.750  0.250-  15 2.33  16 2.33   9 2.33  11 2.33
  39  0.500  0.750  0.249-  12 2.33  10 2.33  15 2.34  16 2.34
  40  0.000  0.000  0.000-   1 3.27   2 3.27   3 3.27   4 3.27  13 3.27  14 3.27  15 3.27  16 3.27

  LATTYP: Found a simple tetragonal cell.
 ALAT       =     7.8009582534
 C/A-ratio  =     1.5781187256

  Lattice vectors:

 A1 = (   7.8009582534,   0.0000000000,   0.0000000000)
 A2 = (   0.0000000000,   7.8009582534,   0.0000000000)
 A3 = (   0.0000000000,   0.0000000000,  12.3108382974)

Analysis of symmetry for initial positions (statically):
 Subroutine PRICEL returns:
 Original cell was already a primitive cell.

 Routine SETGRP: Setting up the symmetry group for a
 simple tetragonal supercell.

 Subroutine GETGRP returns: Found 16 space group operations
 (whereof 16 operations were pure point group operations)
 out of a pool of 16 trial point group operations.

The static configuration has the point symmetry D_4h.

Analysis of symmetry for dynamics (positions and initial velocities):
 Subroutine PRICEL returns:
 Original cell was already a primitive cell.

 Routine SETGRP: Setting up the symmetry group for a
 simple tetragonal supercell.

 Subroutine GETGRP returns: Found 16 space group operations
 (whereof 16 operations were pure point group operations)
 out of a pool of 16 trial point group operations.

The dynamic configuration has the point symmetry D_4h.

 Subroutine INISYM returns: Found 16 space group operations
 (whereof 16 operations are pure point group operations),
 and found     1 'primitive' translations

                                     Primitive cell

  volume of cell :     749.1754

  direct lattice vectors                    reciprocal lattice vectors
     7.800958253  0.000000000  0.000000000     0.128189380  0.000000000  0.000000000
     0.000000000  7.800958253  0.000000000     0.000000000  0.128189380  0.000000000
     0.000000000  0.000000000 12.310838297     0.000000000  0.000000000  0.081229237

  length of vectors
     7.800958253  7.800958253 12.310838297     0.128189380  0.128189380  0.081229237

  position of ions in fractional coordinates (direct lattice)
     0.248877497  0.248877497  0.854997309
     0.751122503  0.248877497  0.854997309
     0.248877497  0.751122503  0.854997309
     0.751122503  0.751122503  0.854997309
     0.000000000  0.000000000  0.645987663
     0.500000000  0.000000000  0.646797741
     0.000000000  0.500000000  0.646797741
     0.500000000  0.500000000  0.647704937
     0.000000000  0.000000000  0.354012337
     0.500000000  0.000000000  0.353202259
     0.000000000  0.500000000  0.353202259
     0.500000000  0.500000000  0.352295063
     0.248877497  0.248877497  0.145002691
     0.751122503  0.248877497  0.145002691
     0.248877497  0.751122503  0.145002691
     0.751122503  0.751122503  0.145002691
     0.500000000  0.000000000  0.000000000
     0.000000000  0.500000000  0.000000000
     0.500000000  0.500000000  0.000000000
     0.250211251  0.250211251  0.500000000
     0.749788749  0.250211251  0.500000000
     0.250211251  0.749788749  0.500000000
     0.749788749  0.749788749  0.500000000
     0.000000000  0.249507317  0.750436545
     0.500000000  0.249642210  0.751427182
     0.000000000  0.750492683  0.750436545
     0.500000000  0.750357790  0.751427182
     0.249507317  0.000000000  0.750436545
     0.750492683  0.000000000  0.750436545
     0.249642210  0.500000000  0.751427182
     0.750357790  0.500000000  0.751427182
     0.249507317  0.000000000  0.249563455
     0.750492683  0.000000000  0.249563455
     0.249642210  0.500000000  0.248572818
     0.750357790  0.500000000  0.248572818
     0.000000000  0.249507317  0.249563455
     0.500000000  0.249642210  0.248572818
     0.000000000  0.750492683  0.249563455
     0.500000000  0.750357790  0.248572818
     0.000000000  0.000000000  0.000000000

  ion indices of the primitive-cell ions
   primitive index   ion index
                 1           1
                 2           2
                 3           3
                 4           4
                 5           5
                 6           6
                 7           7
                 8           8
                 9           9
                10          10
                11          11
                12          12
                13          13
                14          14
                15          15
                16          16
                17          17
                18          18
                19          19
                20          20
                21          21
                22          22
                23          23
                24          24
                25          25
                26          26
                27          27
                28          28
                29          29
                30          30
                31          31
                32          32
                33          33
                34          34
                35          35
                36          36
                37          37
                38          38
                39          39
                40          40

 KPOINTS: K-Spacing Value to Generate K-Mesh: 0.03

Automatic generation of k-mesh.
 Grid dimensions read from file:
 generate k-points for:    4    4    3

 Generating k-lattice:

[...]
 number of electron     384.0000009 magnetization
 augmentation part       95.0271919 magnetization

[...]

 Broyden mixing:
  rms(total) = 0.44435E-06    rms(broyden)= 0.44433E-06
  rms(prec ) = 0.53557E-06
  weight for this iteration     100.00

 eigenvalues of (default mixing * dielectric matrix)
  average eigenvalue GAMMA=   0.8436
  1.0621  1.0621  0.4065

[...]

--------------------------------------- Iteration     11(   5)  ---------------------------------------

 eigenvalue-minimisations  :  3000
 total energy-change (2. order) :-0.4420144E-09  (-0.2042121E-11)
 number of electron     384.0000009 magnetization
 augmentation part       95.0271919 magnetization

 Free energy of the ion-electron system (eV)
  alpha Z        PSCENC =      1348.35728886
  Ewald energy   TEWEN  =    -29655.92723862
  -Hartree energ DENC   =    -11430.52094467
  -exchange      EXHF   =         0.00000000
  -V(xc)+E(xc)   XCENC  =      1252.93743143
  PAW double counting   =     36363.20819559   -35760.44747694
  entropy T*S    EENTRO =        -0.00000000
  eigenvalues    EBANDS =     -2668.06555386
  atomic energy  EATOM  =     40341.65184589
  Solvation  Ediel_sol  =         0.00000000
  free energy    TOTEN  =      -208.80645233 eV

  energy without entropy =     -208.80645233  energy(sigma->0) =     -208.80645233

 average (electrostatic) potential at core
  the test charge radii are     1.0856  1.0808  0.7215  0.9698
  (the norm of the test charge is              1.0000)
       1-104.5481       2-104.5481       3-104.5481       4-104.5481       5-104.5404
       6-104.5445       7-104.5445       8-104.5363       9-104.5404      10-104.5445
      11-104.5445      12-104.5363      13-104.5481      14-104.5481      15-104.5481
      16-104.5481      17 -50.4626      18 -50.4626      19 -50.4270      20 -50.4460
      21 -50.4460      22 -50.4460      23 -50.4460      24 -68.7171      25 -68.7007
      26 -68.7171      27 -68.7007      28 -68.7171      29 -68.7171      30 -68.7007
      31 -68.7007      32 -68.7171      33 -68.7171      34 -68.7007      35 -68.7007
      36 -68.7171      37 -68.7007      38 -68.7171      39 -68.7007      40 -83.5673

 E-fermi :   6.7120     XC(G=0): -10.5746     alpha+bet :-12.2221

 val. band max:        6.4713843452   @ k =   0.0000   0.0000   0.3333
 cond. band min:       6.9335211940   @ k =   0.0000   0.0000   0.0000
 fundamental gap:      0.4621368488
 Fermi energy:         6.7120309272

[...]

 k-point    12 :       0.5000    0.5000    0.3333
  band No.  band energies     occupation
      1     -16.5659      2.00000
      2     -16.5627      2.00000
      3     -16.5627      2.00000
      4     -16.5615      2.00000
      5     -16.5598      2.00000
      6     -16.5585      2.00000
      7     -16.5585      2.00000
      8     -16.5555      2.00000
      9     -16.4750      2.00000
     10     -16.4714      2.00000
     11     -16.4711      2.00000
     12     -16.4711      2.00000
     13     -16.4671      2.00000
     14     -16.4634      2.00000
     15     -16.4629      2.00000
     16     -16.4629      2.00000
     17     -16.4138      2.00000
     18     -16.4132      2.00000
     19     -16.4132      2.00000
     20     -16.4119      2.00000
     21     -16.4022      2.00000
     22     -16.4022      2.00000
     23     -16.4016      2.00000
     24     -16.3953      2.00000
     25     -16.3825      2.00000
     26     -16.3810      2.00000
     27     -16.3810      2.00000
     28     -16.3790      2.00000
     29     -16.3789      2.00000
     30     -16.3780      2.00000
     31     -16.3780      2.00000
     32     -16.3776      2.00000
     33     -16.3776      2.00000
     34     -16.3767      2.00000
     35     -16.3767      2.00000
     36     -16.3765      2.00000
     37     -16.3753      2.00000
     38     -16.3753      2.00000
     39     -16.3745      2.00000
     40     -16.3743      2.00000
     41     -16.3620      2.00000
     42     -16.3620      2.00000
     43     -16.3615      2.00000
     44     -16.3611      2.00000
     45     -16.3611      2.00000
     46     -16.3602      2.00000
     47     -16.3567      2.00000
     48     -16.3563      2.00000
     49     -16.3563      2.00000
     50     -16.3555      2.00000
     51     -16.3545      2.00000
     52     -16.3544      2.00000
     53     -16.3544      2.00000
     54     -16.3540      2.00000
     55     -16.3527      2.00000
     56     -16.3518      2.00000
     57     -16.3457      2.00000
     58     -16.3457      2.00000
     59     -16.3444      2.00000
     60     -16.3441      2.00000
[...]
    218      10.9137      0.00000
    219      10.9357      0.00000
    220      10.9466      0.00000
    221      10.9899      0.00000
    222      10.9899      0.00000
    223      10.9946      0.00000
    224      10.9950      0.00000
    225      11.5509      0.00000
    226      11.5763      0.00000
    227      11.5763      0.00000
    228      11.6275      0.00000
    229      11.6429      0.00000
    230      11.6429      0.00000
    231      11.6801      0.00000
    232      11.6821      0.00000

 soft charge-density along one line, spin component           1
         0         1         2         3         4         5         6         7         8         9
 total charge-density along one line

------------------------ aborting loop because EDIFF is reached ----------------------------------------

  FORCE on cell =-STRESS in cart. coord.  units (eV):
  Direction    XX          YY          ZZ          XY          YZ          ZX
  Alpha Z  1348.35729  1348.35729  1348.35729
  Ewald   -8214.10903 -8214.10903-13227.82121    -0.00000    -0.00000    -0.00000
  Hartree  5290.90641  5290.90641   848.70812    -0.00000    -0.00000    -0.00000
  E(xc)   -1827.05331 -1827.05331 -1828.61849    -0.00000    -0.00000     0.00000
  Local   -5301.19890 -5301.19890  4164.84335     0.00000    -0.00000     0.00000
  n-local  1579.44889  1586.77756  1590.22616     0.52635    -0.05580     0.11794
  augment  2176.44866  2176.44866  2161.00026    -0.00000     0.00000     0.00000
  Kinetic  4945.55096  4954.02586  4948.05583    -3.61545     0.45869    -0.54767
  Fock        0.00000     0.00000     0.00000     0.00000     0.00000     0.00000
  Total       6.25274     6.25274     4.75130     0.00000     0.00000     0.00000
  in kB      13.37203    13.37203    10.16108     0.00000     0.00000     0.00000

 VOLUME and BASIS-vectors are now :
  energy-cutoff  :      520.00
  volume of cell :      749.18
      direct lattice vectors                 reciprocal lattice vectors
     7.800958253  0.000000000  0.000000000     0.128189380  0.000000000  0.000000000
     0.000000000  7.800958253  0.000000000     0.000000000  0.128189380  0.000000000
     0.000000000  0.000000000 12.310838297     0.000000000  0.000000000  0.081229237

  length of vectors
     7.800958253  7.800958253 12.310838297     0.128189380  0.128189380  0.081229237

 FORCES acting on ions
    electron-ion (+dipol)            ewald-force                    non-local-force                 convergence-correction
   -.626E+01 -.626E+01 -.435E+03   0.614E+01 0.614E+01 0.446E+03   0.112E+00 0.112E+00 -.110E+02   -.195E-07 -.195E-07 -.308E-06
   0.626E+01 -.626E+01 -.435E+03   -.614E+01 0.614E+01 0.446E+03   -.112E+00 0.112E+00 -.110E+02   0.195E-07 -.195E-07 -.308E-06
   -.626E+01 0.626E+01 -.435E+03   0.614E+01 -.614E+01 0.446E+03   0.112E+00 -.112E+00 -.110E+02   -.195E-07 0.195E-07 -.308E-06
   0.626E+01 0.626E+01 -.435E+03   -.614E+01 -.614E+01 0.446E+03   -.112E+00 -.112E+00 -.110E+02   0.195E-07 0.195E-07 -.308E-06
   -.776E-13 0.125E-11 0.466E+03   0.284E-13 0.000E+00 -.477E+03   -.681E-19 0.110E-17 0.108E+02   0.336E-11 -.517E-11 -.514E-05
   0.660E-12 0.224E-11 0.465E+03   -.114E-12 -.657E-13 -.476E+03   0.163E-17 -.951E-19 0.108E+02   -.324E-11 -.499E-11 0.740E-06
   -.985E-13 0.132E-11 0.465E+03   -.568E-13 0.000E+00 -.476E+03   0.105E-17 0.582E-18 0.108E+02   0.193E-11 0.102E-10 0.740E-06
   0.727E-12 0.525E-12 0.464E+03   -.284E-13 -.275E-13 -.475E+03   0.122E-17 0.515E-18 0.109E+02   -.182E-11 0.568E-11 0.658E-05
   -.310E-14 -.431E-12 -.466E+03   0.853E-13 0.000E+00 0.477E+03   0.102E-18 0.259E-18 -.108E+02   -.617E-11 -.644E-12 0.514E-05
   0.822E-12 0.537E-12 -.465E+03   -.199E-12 0.320E-13 0.476E+03   -.164E-17 0.567E-20 -.108E+02   0.613E-11 0.648E-11 -.740E-06
   0.248E-13 -.143E-12 -.465E+03   0.142E-12 -.568E-13 0.476E+03   -.691E-18 -.728E-18 -.108E+02   -.124E-10 0.243E-13 -.740E-06
   0.835E-12 -.903E-11 -.464E+03   -.284E-13 -.817E-13 0.475E+03   -.138E-17 0.496E-18 -.109E+02   0.123E-10 -.381E-11 -.658E-05
   -.626E+01 -.626E+01 0.435E+03   0.614E+01 0.614E+01 -.446E+03   0.112E+00 0.112E+00 0.110E+02   -.195E-07 -.195E-07 0.308E-06
   0.626E+01 -.626E+01 0.435E+03   -.614E+01 0.614E+01 -.446E+03   -.112E+00 0.112E+00 0.110E+02   0.195E-07 -.194E-07 0.308E-06
   -.626E+01 0.626E+01 0.435E+03   0.614E+01 -.614E+01 -.446E+03   0.112E+00 -.112E+00 0.110E+02   -.195E-07 0.195E-07 0.308E-06
   0.626E+01 0.626E+01 0.435E+03   -.614E+01 -.614E+01 -.446E+03   -.112E+00 -.112E+00 0.110E+02   0.195E-07 0.194E-07 0.308E-06
   0.389E-13 0.725E-13 0.152E-11   -.853E-13 0.426E-13 0.213E-13   0.152E-26 0.342E-26 0.164E-27   -.262E-11 0.121E-11 0.315E-11
   0.503E-14 0.421E-13 -.558E-13   0.853E-13 0.000E+00 0.533E-13   0.305E-26 -.211E-26 -.240E-27   0.247E-11 -.154E-11 0.419E-11
   0.408E-13 -.524E-12 0.249E-12   0.568E-13 0.000E+00 0.249E-13   -.702E-27 -.462E-27 0.295E-27   -.244E-11 -.104E-11 0.322E-11
   -.206E+01 -.206E+01 -.556E-07   0.207E+01 0.207E+01 -.419E-13   -.104E-01 -.104E-01 -.307E-20   -.333E-05 -.333E-05 -.410E-11
   0.206E+01 -.206E+01 -.132E-10   -.207E+01 0.207E+01 -.170E-13   0.104E-01 -.104E-01 0.485E-20   0.333E-05 -.333E-05 -.849E-11
   -.206E+01 0.206E+01 0.980E-12   0.207E+01 -.207E+01 -.312E-13   -.104E-01 0.104E-01 -.196E-20   -.333E-05 0.333E-05 -.184E-11
   0.206E+01 0.206E+01 0.556E-07   -.207E+01 -.207E+01 -.206E-13   0.104E-01 0.104E-01 0.386E-20   0.333E-05 0.333E-05 -.437E-11
   0.114E-13 -.238E+01 0.868E+01   -.568E-13 0.238E+01 -.883E+01   -.319E-18 -.307E-02 0.146E+00   0.243E-11 0.587E-06 -.555E-06
   0.271E-12 -.178E+01 0.385E+01   -.114E-12 0.177E+01 -.371E+01   -.336E-18 0.953E-02 -.141E+00   -.226E-11 0.678E-06 0.115E-05
   0.155E-13 0.238E+01 0.868E+01   -.284E-13 -.238E+01 -.883E+01   -.457E-18 0.307E-02 0.146E+00   0.690E-12 -.587E-06 -.555E-06
   0.256E-12 0.178E+01 0.385E+01   -.853E-13 -.177E+01 -.371E+01   0.660E-18 -.953E-02 -.141E+00   -.539E-12 -.678E-06 0.115E-05
   -.238E+01 0.160E-11 0.868E+01   0.238E+01 -.178E-13 -.883E+01   -.307E-02 0.428E-18 0.146E+00   0.587E-06 0.422E-12 -.555E-06
   0.238E+01 -.272E-13 0.868E+01   -.238E+01 -.568E-13 -.883E+01   0.307E-02 0.587E-19 0.146E+00   -.587E-06 -.146E-11 -.555E-06
   -.178E+01 -.217E-12 0.385E+01   0.177E+01 0.249E-13 -.371E+01   0.953E-02 -.662E-19 -.141E+00   0.678E-06 0.136E-11 0.115E-05
   0.178E+01 0.140E-11 0.385E+01   -.177E+01 0.284E-13 -.371E+01   -.953E-02 -.236E-18 -.141E+00   -.678E-06 0.453E-11 0.115E-05
   -.238E+01 0.636E-13 -.868E+01   0.238E+01 0.213E-13 0.883E+01   -.307E-02 -.687E-19 -.146E+00   0.587E-06 0.165E-11 0.555E-06
   0.238E+01 -.494E-11 -.868E+01   -.238E+01 0.000E+00 0.883E+01   0.307E-02 0.889E-19 -.146E+00   -.587E-06 0.165E-11 0.555E-06
   -.178E+01 -.109E-13 -.385E+01   0.177E+01 0.639E-13 0.371E+01   0.953E-02 -.243E-18 0.141E+00   0.678E-06 -.255E-12 -.115E-05
   0.178E+01 0.183E-11 -.385E+01   -.177E+01 0.426E-13 0.371E+01   -.953E-02 0.722E-19 0.141E+00   -.678E-06 -.162E-11 -.115E-05
   0.127E-13 -.238E+01 -.868E+01   -.711E-13 0.238E+01 0.883E+01   0.465E-18 -.307E-02 -.146E+00   -.370E-11 0.587E-06 0.555E-06
   0.291E-12 -.178E+01 -.385E+01   0.284E-13 0.177E+01 0.371E+01   0.428E-18 0.953E-02 0.141E+00   0.351E-11 0.678E-06 -.115E-05
   0.271E-13 0.238E+01 -.868E+01   -.995E-13 -.238E+01 0.883E+01   0.237E-18 0.307E-02 -.146E+00   -.293E-11 -.587E-06 0.555E-06
   0.272E-12 0.178E+01 -.385E+01   0.426E-13 -.177E+01 0.371E+01   -.657E-18 -.953E-02 0.141E+00   0.274E-11 -.678E-06 -.115E-05
   0.713E-14 0.505E-13 -.688E-13   -.568E-13 0.142E-13 0.142E-13   -.191E-26 0.243E-26 0.161E-27   0.274E-11 0.149E-11 0.407E-11
   0.197E-10 0.223E-10 -.166E-10   -.199E-12 -.107E-13 0.540E-12   -.134E-16 -.260E-16 0.178E-14   0.109E-11 0.476E-11 0.429E-10

 POSITION                                       TOTAL-FORCE (eV/Angst)
      1.94148      1.94148     10.52573         0.000002      0.000002     -0.000001
      5.85947      1.94148     10.52573        -0.000002      0.000002     -0.000001
      1.94148      5.85947     10.52573         0.000002     -0.000002     -0.000001
      5.85947      5.85947     10.52573        -0.000002     -0.000002     -0.000001
      0.00000      7.80096      7.95266        -0.000000     -0.000000      0.000006
      3.90048      7.80096      7.96262        -0.000000     -0.000000      0.000000
      0.00000      3.90048      7.96262        -0.000000     -0.000000      0.000000
      3.90048      3.90048      7.97379        -0.000000     -0.000000     -0.000004
      0.00000      0.00000      4.35818        -0.000000     -0.000000     -0.000006
      3.90048      7.80096      4.34822        -0.000000     -0.000000     -0.000000
      0.00000      3.90048      4.34822        -0.000000     -0.000000     -0.000000
      3.90048      3.90048      4.33705        -0.000000     -0.000000      0.000004
      1.94148      1.94148      1.78511         0.000002      0.000002      0.000001
      5.85947      1.94148      1.78511        -0.000002      0.000002      0.000001
      1.94148      5.85947      1.78511         0.000002     -0.000002      0.000001
      5.85947      5.85947      1.78511        -0.000002     -0.000002      0.000001
      3.90048      7.80096      0.00000        -0.000000     -0.000000      0.000000
      0.00000      3.90048      0.00000        -0.000000     -0.000000      0.000000
      3.90048      3.90048      0.00000        -0.000000     -0.000000      0.000000
      1.95189      1.95189      6.15542         0.000000      0.000000      0.000000
      5.84906      1.95189      6.15542        -0.000000      0.000000      0.000000
      1.95189      5.84906      6.15542         0.000000     -0.000000      0.000000
      5.84906      5.84906      6.15542        -0.000000     -0.000000      0.000000
      0.00000      1.94640      9.23850        -0.000000     -0.000001     -0.000003
      3.90048      1.94745      9.25070        -0.000000     -0.000002      0.000004
      0.00000      5.85456      9.23850        -0.000000      0.000001     -0.000003
      3.90048      5.85351      9.25070        -0.000000      0.000002      0.000004
      1.94640      0.00000      9.23850        -0.000001     -0.000000     -0.000003
      5.85456      0.00000      9.23850         0.000001     -0.000000     -0.000003
      1.94745      3.90048      9.25070        -0.000002     -0.000000      0.000004
      5.85351      3.90048      9.25070         0.000002     -0.000000      0.000004
      1.94640      0.00000      3.07233        -0.000001     -0.000000      0.000003
      5.85456      7.80096      3.07233         0.000001     -0.000000      0.000003
      1.94745      3.90048      3.06014        -0.000002     -0.000000     -0.000004
      5.85351      3.90048      3.06014         0.000002     -0.000000     -0.000004
      0.00000      1.94640      3.07233        -0.000000     -0.000001      0.000003
      3.90048      1.94745      3.06014        -0.000000     -0.000002     -0.000004
      0.00000      5.85456      3.07233        -0.000000      0.000001      0.000003
      3.90048      5.85351      3.06014        -0.000000      0.000002     -0.000004
      0.00000      7.80096      0.00000        -0.000000     -0.000000      0.000000
    total drift:                                0.000000      0.000000      0.000000

  FREE ENERGIE OF THE ION-ELECTRON SYSTEM (eV)
  free  energy   TOTEN  =      -208.80645233 eV

  energy  without entropy=     -208.80645233  energy(sigma->0) =     -208.80645233

 d Force = 0.1424581E-10[ 0.475E-11, 0.237E-10]  d Energy =-0.4365575E-10 0.579E-10
 d Force =-0.5322519E-03[-0.532E-03,-0.532E-03]  d Ewald  =-0.5322522E-03 0.313E-09

 Conjugate gradient step on ions:
 trial-energy change:    0.000000  1 .order   -0.000000   -0.000000   -0.000000
  (g-gl).g = 0.201E-09      g.g   = 0.137E-09  gl.gl    = 0.777E-10
 g(Force)  = 0.137E-09   g(Stress)= 0.000E+00 ortho     = 0.553E-11
 gamma     =   2.58907
 trial     =   0.15658
 opt step  =   0.19571  (harmonic =   0.19571) maximal distance =0.00000052
 next E    =  -208.806452   (d E  =  -0.00000)

 reached required accuracy - stopping structural energy minimisation