 vasp.6.4.3 19Mar24 (build Apr 09 2025 20:43:19) complex

 executed on             LinuxIFC date 2025.04.14  05:35:18

 INCAR:
   PREC = Accurate
   IBRION = 2
   NSW = 100
   NELMIN = 5
   ISIF = 2
   ENCUT = 520
   EDIFF = 1.000000e-08
   EDIFFG = -1.000000e-5
   ISMEAR = 0
   SIGMA = 0.05
   IALGO = 38
   LREAL = .FALSE.
   ADDGRID = .TRUE.
   LWAVE = .FALSE.
   LCHARG = .FALSE.
   NCORE = 9

 POTCAR:    PAW_PBE Bi_d 06Sep2000
 POTCAR:    PAW_PBE Se 06Sep2000
 POTCAR:    PAW_PBE O 08Apr2002
 POTCAR:    PAW_PBE S 06Sep2000
 POTCAR:    PAW_PBE Bi_d 06Sep2000
   VRHFIN =Bi:

   TITEL  = PAW_PBE Bi_d 06Sep2000
   POMASS =  208.980; ZVAL   =   15.000    mass and valenz
   ENMAX  =  242.839; ENMIN  =  182.129 eV

   TITEL  = PAW_PBE Se 06Sep2000
   POMASS =   78.960; ZVAL   =    6.000    mass and valenz
   ENMAX  =  211.555; ENMIN  =  158.666 eV

   TITEL  = PAW_PBE O 08Apr2002
   POMASS =   16.000; ZVAL   =    6.000    mass and valenz
   ENMAX  =  400.000; ENMIN  =  300.000 eV

   TITEL  = PAW_PBE S 06Sep2000
   POMASS =   32.066; ZVAL   =    6.000    mass and valenz
   ENMAX  =  258.689; ENMIN  =  194.016 eV

  PAW_PBE Bi_d 06Sep2000                :
  PAW_PBE Se 06Sep2000                  :
  PAW_PBE O 08Apr2002                   :
  PAW_PBE S 06Sep2000                   :

 POSCAR: generated by phonopy
  positions in direct lattice
  velocities in cartesian coordinates

 exchange-correlation table for PE
   RHO(1)=    0.500       N(1)  =     2000
   RHO(2)=  100.500       N(2)  =     4000

 ion  position               nearest neighbor table
   1  0.249  0.249  0.853-  24 2.35  28 2.35  25 2.36  30 2.36  40 3.34  18 3.35  17 3.35  13 3.68
                             5 3.78   6 3.79   7 3.79   8 3.79
   2  0.751  0.249  0.853-  24 2.35  29 2.35  25 2.36  31 2.36  40 3.34  18 3.35  17 3.35  14 3.68
                             5 3.78   6 3.79   7 3.79   8 3.79
   3  0.249  0.751  0.853-  26 2.35  28 2.35  27 2.36  30 2.36  40 3.34  18 3.35  17 3.35  15 3.68
                             5 3.78   6 3.79   7 3.79   8 3.79
   4  0.751  0.751  0.853-  26 2.35  29 2.35  27 2.36  31 2.36  40 3.34  18 3.35  17 3.35  16 3.68
                             5 3.78   6 3.79   7 3.79   8 3.79
   5  0.000  0.000  0.648-  24 2.35  26 2.35  28 2.35  29 2.35  20 3.36  21 3.36  22 3.36  23 3.36
                             9 3.70   2 3.78   3 3.78   4 3.78   1 3.78
   6  0.500  0.000  0.649-  28 2.35  29 2.35  25 2.36  27 2.36  10 3.72   2 3.79   3 3.79   4 3.79
                             1 3.79
   7  0.000  0.500  0.649-  24 2.35  26 2.35  30 2.36  31 2.36  11 3.72   2 3.79   3 3.79   4 3.79
                             1 3.79
   8  0.500  0.500  0.650-  25 2.35  27 2.35  30 2.35  31 2.35  12 3.75   2 3.79   3 3.79   4 3.79
                             1 3.79
   9  0.000  0.000  0.352-  32 2.35  33 2.35  36 2.35  38 2.35  20 3.36  21 3.36  22 3.36  23 3.36
                             5 3.70  13 3.78  14 3.78  15 3.78  16 3.78
  10  0.500  0.000  0.351-  32 2.35  33 2.35  37 2.36  39 2.36   6 3.72  13 3.79  14 3.79  15 3.79
                            16 3.79
  11  0.000  0.500  0.351-  36 2.35  38 2.35  34 2.36  35 2.36   7 3.72  13 3.79  14 3.79  15 3.79
                            16 3.79
  12  0.500  0.500  0.350-  34 2.35  35 2.35  37 2.35  39 2.35   8 3.75  13 3.79  14 3.79  15 3.79
                            16 3.79
  13  0.249  0.249  0.147-  32 2.35  36 2.35  34 2.36  37 2.36  40 3.34  18 3.35  17 3.35   1 3.68
                             9 3.78  11 3.79  10 3.79  12 3.79
  14  0.751  0.249  0.147-  33 2.35  36 2.35  35 2.36  37 2.36  40 3.34  18 3.35  17 3.35   2 3.68
                             9 3.78  11 3.79  10 3.79  12 3.79
  15  0.249  0.751  0.147-  32 2.35  38 2.35  34 2.36  39 2.36  40 3.34  18 3.35  17 3.35   3 3.68
                             9 3.78  11 3.79  10 3.79  12 3.79
  16  0.751  0.751  0.147-  33 2.35  38 2.35  35 2.36  39 2.36  40 3.34  18 3.35  17 3.35   4 3.68
                             9 3.78  11 3.79  10 3.79  12 3.79
  17  0.500  0.000  0.000-   1 3.35   2 3.35   3 3.35   4 3.35  13 3.35  14 3.35  15 3.35  16 3.35

  18  0.000  0.500  0.000-   1 3.35   2 3.35   3 3.35   4 3.35  13 3.35  14 3.35  15 3.35  16 3.35

  19  0.500  0.500  0.000-
  20  0.250  0.250  0.500-   5 3.36   9 3.36
  21  0.750  0.250  0.500-   5 3.36   9 3.36
  22  0.250  0.750  0.500-   5 3.36   9 3.36
  23  0.750  0.750  0.500-   5 3.36   9 3.36
  24  0.000  0.250  0.751-   1 2.35   2 2.35   7 2.35   5 2.35
  25  0.500  0.250  0.751-   8 2.35   6 2.36   1 2.36   2 2.36
  26  0.000  0.750  0.751-   3 2.35   4 2.35   7 2.35   5 2.35
  27  0.500  0.750  0.751-   8 2.35   6 2.36   3 2.36   4 2.36
  28  0.250  0.000  0.751-   1 2.35   3 2.35   6 2.35   5 2.35
  29  0.750  0.000  0.751-   2 2.35   4 2.35   6 2.35   5 2.35
  30  0.250  0.500  0.751-   8 2.35   7 2.36   1 2.36   3 2.36
  31  0.750  0.500  0.751-   8 2.35   7 2.36   2 2.36   4 2.36
  32  0.250  0.000  0.249-  13 2.35  15 2.35  10 2.35   9 2.35
  33  0.750  0.000  0.249-  14 2.35  16 2.35  10 2.35   9 2.35
  34  0.250  0.500  0.249-  12 2.35  11 2.36  13 2.36  15 2.36
  35  0.750  0.500  0.249-  12 2.35  11 2.36  14 2.36  16 2.36
  36  0.000  0.250  0.249-  13 2.35  14 2.35  11 2.35   9 2.35
  37  0.500  0.250  0.249-  12 2.35  10 2.36  13 2.36  14 2.36
  38  0.000  0.750  0.249-  15 2.35  16 2.35  11 2.35   9 2.35
  39  0.500  0.750  0.249-  12 2.35  10 2.36  15 2.36  16 2.36
  40  0.000  0.000  0.000-   1 3.34   2 3.34   3 3.34   4 3.34  13 3.34  14 3.34  15 3.34  16 3.34

  LATTYP: Found a simple tetragonal cell.
 ALAT       =     7.9185606392
 C/A-ratio  =     1.5781187256

  Lattice vectors:

 A1 = (   7.9185606392,   0.0000000000,   0.0000000000)
 A2 = (   0.0000000000,   7.9185606392,   0.0000000000)
 A3 = (   0.0000000000,   0.0000000000,  12.4964288245)

Analysis of symmetry for initial positions (statically):
 Subroutine PRICEL returns:
 Original cell was already a primitive cell.

 Routine SETGRP: Setting up the symmetry group for a
 simple tetragonal supercell.

 Subroutine GETGRP returns: Found 16 space group operations
 (whereof 16 operations were pure point group operations)
 out of a pool of 16 trial point group operations.

The static configuration has the point symmetry D_4h.

Analysis of symmetry for dynamics (positions and initial velocities):
 Subroutine PRICEL returns:
 Original cell was already a primitive cell.

 Routine SETGRP: Setting up the symmetry group for a
 simple tetragonal supercell.

 Subroutine GETGRP returns: Found 16 space group operations
 (whereof 16 operations were pure point group operations)
 out of a pool of 16 trial point group operations.

The dynamic configuration has the point symmetry D_4h.

 Subroutine INISYM returns: Found 16 space group operations
 (whereof 16 operations are pure point group operations),
 and found     1 'primitive' translations

                                     Primitive cell

  volume of cell :     783.5711

  direct lattice vectors                    reciprocal lattice vectors
     7.918560639  0.000000000  0.000000000     0.126285577  0.000000000  0.000000000
     0.000000000  7.918560639  0.000000000     0.000000000  0.126285577  0.000000000
     0.000000000  0.000000000 12.496428824     0.000000000  0.000000000  0.080022862

  length of vectors
     7.918560639  7.918560639 12.496428824     0.126285577  0.126285577  0.080022862

  position of ions in fractional coordinates (direct lattice)
     0.248966543  0.248966543  0.852820205
     0.751033457  0.248966543  0.852820205
     0.248966543  0.751033457  0.852820205
     0.751033457  0.751033457  0.852820205
     0.000000000  0.000000000  0.648172513
     0.500000000  0.000000000  0.648980013
     0.000000000  0.500000000  0.648980013
     0.500000000  0.500000000  0.649897437
     0.000000000  0.000000000  0.351827487
     0.500000000  0.000000000  0.351019987
     0.000000000  0.500000000  0.351019987
     0.500000000  0.500000000  0.350102563
     0.248966543  0.248966543  0.147179795
     0.751033457  0.248966543  0.147179795
     0.248966543  0.751033457  0.147179795
     0.751033457  0.751033457  0.147179795
     0.500000000  0.000000000  0.000000000
     0.000000000  0.500000000  0.000000000
     0.500000000  0.500000000  0.000000000
     0.249937161  0.249937161  0.500000000
     0.750062839  0.249937161  0.500000000
     0.249937161  0.750062839  0.500000000
     0.750062839  0.750062839  0.500000000
     0.000000000  0.249600661  0.750547334
     0.500000000  0.249737048  0.751323593
     0.000000000  0.750399339  0.750547334
     0.500000000  0.750262952  0.751323593
     0.249600661  0.000000000  0.750547334
     0.750399339  0.000000000  0.750547334
     0.249737048  0.500000000  0.751323593
     0.750262952  0.500000000  0.751323593
     0.249600661  0.000000000  0.249452666
     0.750399339  0.000000000  0.249452666
     0.249737048  0.500000000  0.248676407
     0.750262952  0.500000000  0.248676407
     0.000000000  0.249600661  0.249452666
     0.500000000  0.249737048  0.248676407
     0.000000000  0.750399339  0.249452666
     0.500000000  0.750262952  0.248676407
     0.000000000  0.000000000  0.000000000

  ion indices of the primitive-cell ions
   primitive index   ion index
                 1           1
                 2           2
                 3           3
                 4           4
                 5           5
                 6           6
                 7           7
                 8           8
                 9           9
                10          10
                11          11
                12          12
                13          13
                14          14
                15          15
                16          16
                17          17
                18          18
                19          19
                20          20
                21          21
                22          22
                23          23
                24          24
                25          25
                26          26
                27          27
                28          28
                29          29
                30          30
                31          31
                32          32
                33          33
                34          34
                35          35
                36          36
                37          37
                38          38
                39          39
                40          40

 KPOINTS: K-Spacing Value to Generate K-Mesh: 0.03

Automatic generation of k-mesh.
 Grid dimensions read from file:
 generate k-points for:    4    4    3

 Generating k-lattice:

  Cartesian coordinates                     Fractional coordinates (reciprocal lattice)
     0.031571394  0.000000000  0.000000000     0.250000000  0.000000000  0.000000000
     0.000000000  0.031571394  0.000000000     0.000000000  0.250000000  0.000000000
     0.000000000  0.000000000  0.026674287     0.000000000  0.000000000  0.333333333

  Length of vectors
     0.031571394  0.031571394  0.026674287

  Shift w.r.t. Gamma in fractional coordinates (k-lattice)
     0.000000000  0.000000000  0.000000000

[...]
 next E    =  -208.716341   (d E  =  -0.00000)

[...]

 d Force =-0.1537202E-10[-0.391E-10, 0.834E-11]  d Energy = 0.8985808E-09-0.914E-09
 d Force = 0.4419574E-03[ 0.442E-03, 0.442E-03]  d Ewald  = 0.4419573E-03 0.946E-10

--------------------------------------- Ionic step        4  -------------------------------------------

[...]

 eigenvalue-minimisations  :  3152
 total energy-change (2. order) :-0.9104042E-09  (-0.1554947E-11)
 number of electron     384.0000000 magnetization
 augmentation part       95.0138158 magnetization

 Broyden mixing:
  rms(total) = 0.17728E-06    rms(broyden)= 0.17724E-06
  rms(prec ) = 0.20521E-06
  weight for this iteration     100.00

 eigenvalues of (default mixing * dielectric matrix)
  average eigenvalue GAMMA=   0.9827
  1.2637  1.2637  0.4207

[...]

--------------------------------------- Iteration      4(   5)  ---------------------------------------

 eigenvalue-minimisations  :  3144
 total energy-change (2. order) : 0.5102265E-09  (-0.5740061E-12)
 number of electron     384.0000000 magnetization
 augmentation part       95.0138158 magnetization

 Free energy of the ion-electron system (eV)
  alpha Z        PSCENC =      1289.16975503
  Ewald energy   TEWEN  =    -29015.75095697
  -Hartree energ DENC   =    -11822.14464280
  -exchange      EXHF   =         0.00000000
  -V(xc)+E(xc)   XCENC  =      1248.67650720
  PAW double counting   =     36030.41639372   -35424.22941187
  entropy T*S    EENTRO =        -0.00000044
  eigenvalues    EBANDS =     -2856.50583111
  atomic energy  EATOM  =     40341.65184589
  Solvation  Ediel_sol  =         0.00000000
  free energy    TOTEN  =      -208.71634134 eV

  energy without entropy =     -208.71634090  energy(sigma->0) =     -208.71634112

 average (electrostatic) potential at core
  the test charge radii are     1.0856  1.0808  0.7215  0.9698
  (the norm of the test charge is              1.0000)
       1-105.1368       2-105.1368       3-105.1368       4-105.1368       5-105.1273
       6-105.1329       7-105.1329       8-105.1260       9-105.1273      10-105.1329
      11-105.1329      12-105.1260      13-105.1368      14-105.1368      15-105.1368
      16-105.1368      17 -50.9159      18 -50.9159      19 -50.8815      20 -50.8964
      21 -50.8964      22 -50.8964      23 -50.8964      24 -69.2215      25 -69.2082
      26 -69.2215      27 -69.2082      28 -69.2215      29 -69.2215      30 -69.2082
      31 -69.2082      32 -69.2215      33 -69.2215      34 -69.2082      35 -69.2082
      36 -69.2215      37 -69.2082      38 -69.2215      39 -69.2082      40 -84.0059

 E-fermi :   6.2054     XC(G=0): -10.3459     alpha+bet :-11.6856

 val. band max:        6.0510714245   @ k =   0.0000   0.0000   0.3333
 cond. band min:       6.3463357916   @ k =   0.0000   0.0000   0.0000
 fundamental gap:      0.2952643671
 Fermi energy:         6.2053894994

[...]

 k-point    12 :       0.5000    0.5000    0.3333
  band No.  band energies     occupation
      1     -17.1120      2.00000
      2     -17.1098      2.00000
      3     -17.1098      2.00000
      4     -17.1088      2.00000
      5     -17.1080      2.00000
      6     -17.1067      2.00000
      7     -17.1067      2.00000
      8     -17.1049      2.00000
      9     -17.0315      2.00000
     10     -17.0284      2.00000
     11     -17.0278      2.00000
     12     -17.0278      2.00000
     13     -17.0258      2.00000
     14     -17.0227      2.00000
     15     -17.0218      2.00000
     16     -17.0218      2.00000
     17     -16.9804      2.00000
     18     -16.9801      2.00000
     19     -16.9801      2.00000
     20     -16.9791      2.00000
     21     -16.9705      2.00000
     22     -16.9705      2.00000
     23     -16.9687      2.00000
     24     -16.9653      2.00000
     25     -16.9517      2.00000
     26     -16.9512      2.00000
     27     -16.9509      2.00000
     28     -16.9508      2.00000
     29     -16.9508      2.00000
     30     -16.9503      2.00000
     31     -16.9503      2.00000
     32     -16.9489      2.00000
     33     -16.9485      2.00000
     34     -16.9485      2.00000
     35     -16.9480      2.00000
     36     -16.9480      2.00000
     37     -16.9471      2.00000
     38     -16.9471      2.00000
     39     -16.9470      2.00000
     40     -16.9457      2.00000
     41     -16.9331      2.00000
     42     -16.9331      2.00000
     43     -16.9322      2.00000
     44     -16.9320      2.00000
     45     -16.9312      2.00000
     46     -16.9312      2.00000
     47     -16.9307      2.00000
     48     -16.9307      2.00000
     49     -16.9299      2.00000
     50     -16.9299      2.00000
     51     -16.9297      2.00000
     52     -16.9284      2.00000
     53     -16.9272      2.00000
     54     -16.9271      2.00000
     55     -16.9269      2.00000
     56     -16.9262      2.00000
     57     -16.9248      2.00000
     58     -16.9248      2.00000
     59     -16.9227      2.00000
     60     -16.9226      2.00000
[...]
    218      10.1382      0.00000
    219      10.1504      0.00000
    220      10.1662      0.00000
    221      10.2126      0.00000
    222      10.2126      0.00000
    223      10.2145      0.00000
    224      10.2275      0.00000
    225      10.8119      0.00000
    226      10.8119      0.00000
    227      10.8130      0.00000
    228      10.8943      0.00000
    229      10.8990      0.00000
    230      10.8995      0.00000
    231      10.9011      0.00000
    232      10.9015      0.00000

 soft charge-density along one line, spin component           1
         0         1         2         3         4         5         6         7         8         9
 total charge-density along one line

------------------------ aborting loop because EDIFF is reached ----------------------------------------

  FORCE on cell =-STRESS in cart. coord.  units (eV):
  Direction    XX          YY          ZZ          XY          YZ          ZX
  Alpha Z  1289.16976  1289.16976  1289.16976
  Ewald   -7774.28899 -7774.28899-13467.28623    -0.00000     0.00000    -0.00000
  Hartree  5595.75080  5595.75080   630.64303    -0.00000    -0.00000    -0.00000
  E(xc)   -1823.33349 -1823.33349 -1825.20694    -0.00000     0.00000    -0.00000
  Local   -5980.51672 -5980.51672  4684.41634     0.00000     0.00000    -0.00000
  n-local  1571.53536  1579.93360  1579.89337     0.40969    -0.05743     0.10345
  augment  2176.33730  2176.33730  2161.36015    -0.00000     0.00000     0.00000
  Kinetic  4924.97010  4933.91580  4938.22301    -3.35464     0.44563    -0.49947
  Fock        0.00000     0.00000     0.00000     0.00000     0.00000     0.00000
  Total     -11.70390   -11.70390    -8.78751     0.00000     0.00000     0.00000
  in kB     -23.93111   -23.93111   -17.96793     0.00000     0.00000     0.00000

 VOLUME and BASIS-vectors are now :
  energy-cutoff  :      520.00
  volume of cell :      783.57
      direct lattice vectors                 reciprocal lattice vectors
     7.918560639  0.000000000  0.000000000     0.126285577  0.000000000  0.000000000
     0.000000000  7.918560639  0.000000000     0.000000000  0.126285577  0.000000000
     0.000000000  0.000000000 12.496428824     0.000000000  0.000000000  0.080022862

  length of vectors
     7.918560639  7.918560639 12.496428824     0.126285577  0.126285577  0.080022862

 FORCES acting on ions
    electron-ion (+dipol)            ewald-force                    non-local-force                 convergence-correction
   -.565E+01 -.565E+01 -.443E+03   0.556E+01 0.556E+01 0.454E+03   0.917E-01 0.917E-01 -.106E+02   -.931E-07 -.931E-07 -.374E-06
   0.565E+01 -.565E+01 -.443E+03   -.556E+01 0.556E+01 0.454E+03   -.917E-01 0.917E-01 -.106E+02   0.931E-07 -.931E-07 -.374E-06
   -.565E+01 0.565E+01 -.443E+03   0.556E+01 -.556E+01 0.454E+03   0.917E-01 -.917E-01 -.106E+02   -.931E-07 0.931E-07 -.374E-06
   0.565E+01 0.565E+01 -.443E+03   -.556E+01 -.556E+01 0.454E+03   -.917E-01 -.917E-01 -.106E+02   0.931E-07 0.931E-07 -.374E-06
   -.242E-13 -.436E-11 0.473E+03   -.171E-12 -.568E-13 -.484E+03   -.106E-17 0.148E-18 0.104E+02   -.109E-11 -.453E-11 0.357E-06
   0.775E-12 -.255E-12 0.472E+03   -.114E-12 -.817E-13 -.483E+03   -.461E-19 0.300E-18 0.105E+02   0.981E-12 -.472E-11 0.208E-06
   -.405E-13 0.409E-12 0.472E+03   0.000E+00 0.284E-13 -.483E+03   -.735E-18 -.472E-18 0.105E+02   -.460E-11 0.479E-11 0.208E-06
   0.707E-12 0.695E-11 0.473E+03   -.853E-13 -.551E-13 -.484E+03   0.821E-18 0.109E-17 0.106E+02   0.447E-11 0.237E-11 -.281E-06
   0.998E-14 0.563E-11 -.473E+03   -.114E-12 0.000E+00 0.484E+03   0.729E-18 0.241E-18 -.104E+02   -.464E-11 0.147E-12 -.357E-06
   0.836E-12 0.176E-11 -.472E+03   -.853E-13 -.320E-13 0.483E+03   0.559E-19 0.295E-18 -.105E+02   0.423E-11 0.265E-11 -.208E-06
   -.340E-14 0.156E-11 -.472E+03   -.284E-13 0.000E+00 0.483E+03   0.152E-18 -.446E-18 -.105E+02   -.491E-11 0.148E-11 -.208E-06
   0.826E-12 0.316E-11 -.473E+03   0.114E-12 0.107E-12 0.484E+03   -.861E-18 0.222E-18 -.106E+02   0.454E-11 -.977E-12 0.281E-06
   -.565E+01 -.565E+01 0.443E+03   0.556E+01 0.556E+01 -.454E+03   0.917E-01 0.917E-01 0.106E+02   -.931E-07 -.931E-07 0.374E-06
   0.565E+01 -.565E+01 0.443E+03   -.556E+01 0.556E+01 -.454E+03   -.917E-01 0.917E-01 0.106E+02   0.931E-07 -.931E-07 0.374E-06
   -.565E+01 0.565E+01 0.443E+03   0.556E+01 -.556E+01 -.454E+03   0.917E-01 -.917E-01 0.106E+02   -.931E-07 0.931E-07 0.374E-06
   0.565E+01 0.565E+01 0.443E+03   -.556E+01 -.556E+01 -.454E+03   -.917E-01 -.917E-01 0.106E+02   0.931E-07 0.931E-07 0.374E-06
   0.316E-13 0.159E-13 0.789E-12   0.114E-12 0.568E-13 0.710E-14   -.490E-26 -.919E-26 -.361E-26   -.223E-11 0.853E-12 0.201E-13
   0.696E-14 0.436E-13 -.411E-13   0.568E-13 0.284E-13 -.905E-18   -.377E-26 0.750E-26 -.428E-26   0.177E-11 -.120E-11 0.129E-11
   0.318E-13 -.152E-11 -.181E-11   0.000E+00 0.000E+00 0.107E-13   0.380E-27 0.190E-26 -.522E-26   -.176E-11 -.934E-12 0.106E-11
   -.226E+01 -.226E+01 0.175E-07   0.228E+01 0.228E+01 0.350E-13   -.113E-01 -.113E-01 -.594E-20   0.100E-06 0.100E-06 0.262E-12
   0.226E+01 -.226E+01 0.903E-11   -.228E+01 0.228E+01 0.208E-13   0.113E-01 -.113E-01 0.852E-20   -.100E-06 0.100E-06 -.107E-11
   -.226E+01 0.226E+01 -.140E-11   0.228E+01 -.228E+01 -.432E-13   -.113E-01 0.113E-01 -.366E-20   0.100E-06 -.100E-06 0.130E-11
   0.226E+01 0.226E+01 -.175E-07   -.228E+01 -.228E+01 0.243E-13   0.113E-01 0.113E-01 0.371E-20   -.100E-06 -.100E-06 0.218E-11
   0.109E-13 -.201E+01 0.826E+01   -.284E-13 0.199E+01 -.841E+01   0.140E-18 0.187E-01 0.153E+00   0.184E-11 0.126E-05 0.219E-07
   0.234E-12 -.140E+01 0.395E+01   -.568E-13 0.136E+01 -.380E+01   0.384E-18 0.332E-01 -.150E+00   -.182E-11 0.603E-06 -.486E-06
   0.677E-14 0.201E+01 0.826E+01   -.426E-13 -.199E+01 -.841E+01   0.181E-18 -.187E-01 0.153E+00   0.805E-12 -.126E-05 0.219E-07
   0.234E-12 0.140E+01 0.395E+01   0.000E+00 -.136E+01 -.380E+01   0.107E-18 -.332E-01 -.150E+00   -.814E-12 -.603E-06 -.486E-06
   -.201E+01 0.346E-11 0.826E+01   0.199E+01 0.213E-13 -.841E+01   0.187E-01 0.291E-19 0.153E+00   0.126E-05 -.141E-11 0.219E-07
   0.201E+01 0.463E-11 0.826E+01   -.199E+01 -.284E-13 -.841E+01   -.187E-01 -.164E-18 0.153E+00   -.126E-05 -.202E-11 0.219E-07
   -.140E+01 -.158E-11 0.395E+01   0.136E+01 -.355E-14 -.380E+01   0.332E-01 -.330E-18 -.150E+00   0.603E-06 0.142E-11 -.486E-06
   0.140E+01 0.186E-11 0.395E+01   -.136E+01 -.426E-13 -.380E+01   -.332E-01 0.831E-20 -.150E+00   -.603E-06 0.148E-11 -.486E-06
   -.201E+01 0.246E-12 -.826E+01   0.199E+01 -.711E-14 0.841E+01   0.187E-01 0.174E-18 -.153E+00   0.126E-05 0.156E-11 -.219E-07
   0.201E+01 0.196E-11 -.826E+01   -.199E+01 -.142E-13 0.841E+01   -.187E-01 0.269E-19 -.153E+00   -.126E-05 0.296E-11 -.219E-07
   -.140E+01 -.159E-11 -.395E+01   0.136E+01 0.355E-13 0.380E+01   0.332E-01 -.147E-19 0.150E+00   0.603E-06 -.910E-12 0.486E-06
   0.140E+01 0.265E-12 -.395E+01   -.136E+01 0.284E-13 0.380E+01   -.332E-01 0.300E-18 0.150E+00   -.603E-06 0.286E-12 0.486E-06
   0.630E-13 -.201E+01 -.826E+01   -.284E-13 0.199E+01 0.841E+01   -.170E-18 0.187E-01 -.153E+00   -.553E-12 0.126E-05 -.219E-07
   0.316E-12 -.140E+01 -.395E+01   -.995E-13 0.136E+01 0.380E+01   -.133E-18 0.332E-01 0.150E+00   0.445E-12 0.603E-06 0.486E-06
   0.589E-13 0.201E+01 -.826E+01   -.568E-13 -.199E+01 0.841E+01   -.195E-18 -.187E-01 -.153E+00   -.806E-12 -.126E-05 -.219E-07
   0.322E-12 0.140E+01 -.395E+01   -.284E-13 -.136E+01 0.380E+01   -.349E-18 -.332E-01 0.150E+00   0.695E-12 -.603E-06 0.486E-06
   0.860E-14 0.950E-14 -.120E-12   -.568E-13 -.711E-13 -.568E-13   -.303E-26 -.232E-26 -.399E-27   0.230E-11 0.146E-11 0.690E-12
   0.231E-10 0.350E-10 0.260E-09   0.853E-13 -.103E-12 -.270E-12   -.217E-16 -.208E-16 -.178E-14   -.187E-11 0.208E-12 -.338E-10

 POSITION                                       TOTAL-FORCE (eV/Angst)
      1.97146      1.97146     10.65721        -0.000000     -0.000000      0.000004
      5.94710      1.97146     10.65721         0.000000     -0.000000      0.000004
      1.97146      5.94710     10.65721        -0.000000      0.000000      0.000004
      5.94710      5.94710     10.65721         0.000000      0.000000      0.000004
      0.00000      7.91856      8.09984         0.000000     -0.000000     -0.000008
      3.95928      0.00000      8.10993         0.000000     -0.000000     -0.000003
      0.00000      3.95928      8.10993         0.000000     -0.000000     -0.000003
      3.95928      3.95928      8.12140        -0.000000     -0.000000      0.000002
      0.00000      0.00000      4.39659        -0.000000     -0.000000      0.000008
      3.95928      7.91856      4.38650        -0.000000      0.000000      0.000003
      0.00000      3.95928      4.38650        -0.000000     -0.000000      0.000003
      3.95928      3.95928      4.37503         0.000000     -0.000000     -0.000002
      1.97146      1.97146      1.83922        -0.000000     -0.000000     -0.000004
      5.94710      1.97146      1.83922         0.000000     -0.000000     -0.000004
      1.97146      5.94710      1.83922        -0.000000      0.000000     -0.000004
      5.94710      5.94710      1.83922         0.000000      0.000000     -0.000004
      3.95928      0.00000     12.49643        -0.000000     -0.000000      0.000000
      0.00000      3.95928     12.49643        -0.000000     -0.000000      0.000000
      3.95928      3.95928     12.49643         0.000000      0.000000      0.000000
      1.97914      1.97914      6.24821        -0.000001     -0.000001      0.000000
      5.93942      1.97914      6.24821         0.000001     -0.000001      0.000000
      1.97914      5.93942      6.24821        -0.000001      0.000001      0.000000
      5.93942      5.93942      6.24821         0.000001      0.000001      0.000000
      0.00000      1.97648      9.37916         0.000000     -0.000007     -0.000002
      3.95928      1.97756      9.38886        -0.000000     -0.000005      0.000002
      0.00000      5.94208      9.37916         0.000000      0.000007     -0.000002
      3.95928      5.94100      9.38886         0.000000      0.000005      0.000002
      1.97648      7.91856      9.37916        -0.000007      0.000000     -0.000002
      5.94208      7.91856      9.37916         0.000007     -0.000000     -0.000002
      1.97756      3.95928      9.38886        -0.000005     -0.000000      0.000002
      5.94100      3.95928      9.38886         0.000005      0.000000      0.000002
      1.97648      0.00000      3.11727        -0.000007     -0.000000      0.000002
      5.94208      7.91856      3.11727         0.000007      0.000000      0.000002
      1.97756      3.95928      3.10757        -0.000005     -0.000000     -0.000002
      5.94100      3.95928      3.10757         0.000005     -0.000000     -0.000002
      0.00000      1.97648      3.11727        -0.000000     -0.000007      0.000002
      3.95928      1.97756      3.10757        -0.000000     -0.000005     -0.000002
      0.00000      5.94208      3.11727         0.000000      0.000007      0.000002
      3.95928      5.94100      3.10757         0.000000      0.000005     -0.000002
      0.00000      0.00000     12.49643         0.000000     -0.000000      0.000000
    total drift:                                0.000000      0.000000      0.000000

  FREE ENERGIE OF THE ION-ELECTRON SYSTEM (eV)
  free  energy   TOTEN  =      -208.71634134 eV

  energy  without entropy=     -208.71634090  energy(sigma->0) =     -208.71634112

 d Force = 0.1860168E-10[ 0.499E-11, 0.322E-10]  d Energy =-0.8394636E-09 0.858E-09
 d Force =-0.3642295E-03[-0.364E-03,-0.364E-03]  d Ewald  =-0.3642292E-03-0.371E-09

 reached required accuracy - stopping structural energy minimisation