 vasp.6.4.3 19Mar24 (build Apr 09 2025 20:43:19) complex

 executed on             LinuxIFC date 2025.04.14  02:11:33

 INCAR:
   PREC = Accurate
   IBRION = 2
   NSW = 100
   NELMIN = 5
   ISIF = 2
   ENCUT = 520
   EDIFF = 1.000000e-08
   EDIFFG = -1.000000e-5
   ISMEAR = 0
   SIGMA = 0.05
   IALGO = 38
   LREAL = .FALSE.
   ADDGRID = .TRUE.
   LWAVE = .FALSE.
   LCHARG = .FALSE.
   NCORE = 9

 POTCAR:    PAW_PBE Bi_d 06Sep2000
 POTCAR:    PAW_PBE Se 06Sep2000
 POTCAR:    PAW_PBE O 08Apr2002
 POTCAR:    PAW_PBE S 06Sep2000
 POTCAR:    PAW_PBE Bi_d 06Sep2000
   VRHFIN =Bi:

   TITEL  = PAW_PBE Bi_d 06Sep2000
   POMASS =  208.980; ZVAL   =   15.000    mass and valenz
   ENMAX  =  242.839; ENMIN  =  182.129 eV

   TITEL  = PAW_PBE Se 06Sep2000
   POMASS =   78.960; ZVAL   =    6.000    mass and valenz
   ENMAX  =  211.555; ENMIN  =  158.666 eV

   TITEL  = PAW_PBE O 08Apr2002
   POMASS =   16.000; ZVAL   =    6.000    mass and valenz
   ENMAX  =  400.000; ENMIN  =  300.000 eV

   TITEL  = PAW_PBE S 06Sep2000
   POMASS =   32.066; ZVAL   =    6.000    mass and valenz
   ENMAX  =  258.689; ENMIN  =  194.016 eV

  PAW_PBE Bi_d 06Sep2000                :
  PAW_PBE Se 06Sep2000                  :
  PAW_PBE O 08Apr2002                   :
  PAW_PBE S 06Sep2000                   :

 POSCAR: generated by phonopy
  positions in direct lattice
  velocities in cartesian coordinates

 exchange-correlation table for PE
   RHO(1)=    0.500       N(1)  =     2000
   RHO(2)=  100.500       N(2)  =     4000

 ion  position               nearest neighbor table
   1  0.249  0.249  0.854-  24 2.34  28 2.34  25 2.35  30 2.35  40 3.32  18 3.33  17 3.33  19 3.34
                            13 3.64   5 3.78   7 3.78   6 3.78   8 3.78   3 3.92   2 3.92
   2  0.751  0.249  0.854-  24 2.34  29 2.34  25 2.35  31 2.35  40 3.32  18 3.33  17 3.33  19 3.34
                            14 3.64   5 3.78   7 3.78   6 3.78   8 3.78   4 3.92   1 3.92
   3  0.249  0.751  0.854-  26 2.34  28 2.34  27 2.35  30 2.35  40 3.32  18 3.33  17 3.33  19 3.34
                            15 3.64   5 3.78   7 3.78   6 3.78   8 3.78   4 3.92   1 3.92
   4  0.751  0.751  0.854-  26 2.34  29 2.34  27 2.35  31 2.35  40 3.32  18 3.33  17 3.33  19 3.34
                            16 3.64   5 3.78   7 3.78   6 3.78   8 3.78   3 3.92   2 3.92
   5  0.000  0.000  0.647-  24 2.35  26 2.35  28 2.35  29 2.35  20 3.34  21 3.34  22 3.34  23 3.34
                             9 3.67   2 3.78   3 3.78   4 3.78   1 3.78
   6  0.500  0.000  0.648-  28 2.35  29 2.35  25 2.35  27 2.35  20 3.34  21 3.34  22 3.34  23 3.34
                            10 3.69   2 3.78   3 3.78   4 3.78   1 3.78
   7  0.000  0.500  0.648-  24 2.35  26 2.35  30 2.35  31 2.35  20 3.34  21 3.34  22 3.34  23 3.34
                            11 3.69   2 3.78   3 3.78   4 3.78   1 3.78
   8  0.500  0.500  0.649-  25 2.35  27 2.35  30 2.35  31 2.35  20 3.35  21 3.35  22 3.35  23 3.35
                            12 3.71   2 3.78   3 3.78   4 3.78   1 3.78
   9  0.000  0.000  0.353-  32 2.35  33 2.35  36 2.35  38 2.35  20 3.34  21 3.34  22 3.34  23 3.34
                             5 3.67  13 3.78  14 3.78  15 3.78  16 3.78
  10  0.500  0.000  0.352-  32 2.35  33 2.35  37 2.35  39 2.35  20 3.34  21 3.34  22 3.34  23 3.34
                             6 3.69  13 3.78  14 3.78  15 3.78  16 3.78
  11  0.000  0.500  0.352-  36 2.35  38 2.35  34 2.35  35 2.35  20 3.34  21 3.34  22 3.34  23 3.34
                             7 3.69  13 3.78  14 3.78  15 3.78  16 3.78
  12  0.500  0.500  0.351-  34 2.35  35 2.35  37 2.35  39 2.35  20 3.35  21 3.35  22 3.35  23 3.35
                             8 3.71  13 3.78  14 3.78  15 3.78  16 3.78
  13  0.249  0.249  0.146-  32 2.34  36 2.34  34 2.35  37 2.35  40 3.32  18 3.33  17 3.33  19 3.34
                             1 3.64   9 3.78  10 3.78  11 3.78  12 3.78  14 3.92  15 3.92
  14  0.751  0.249  0.146-  33 2.34  36 2.34  35 2.35  37 2.35  40 3.32  18 3.33  17 3.33  19 3.34
                             2 3.64   9 3.78  10 3.78  11 3.78  12 3.78  13 3.92  16 3.92
  15  0.249  0.751  0.146-  32 2.34  38 2.34  34 2.35  39 2.35  40 3.32  18 3.33  17 3.33  19 3.34
                             3 3.64   9 3.78  10 3.78  11 3.78  12 3.78  13 3.92  16 3.92
  16  0.751  0.751  0.146-  33 2.34  38 2.34  35 2.35  39 2.35  40 3.32  18 3.33  17 3.33  19 3.34
                             4 3.64   9 3.78  10 3.78  11 3.78  12 3.78  14 3.92  15 3.92
  17  0.500  0.000  0.000-   1 3.33   2 3.33   3 3.33   4 3.33  13 3.33  14 3.33  15 3.33  16 3.33

  18  0.000  0.500  0.000-   1 3.33   2 3.33   3 3.33   4 3.33  13 3.33  14 3.33  15 3.33  16 3.33

[...]

  24  0.000  0.250  0.751-   1 2.34   2 2.34   5 2.35   7 2.35
  25  0.500  0.250  0.751-   8 2.35   6 2.35   1 2.35   2 2.35
  26  0.000  0.750  0.751-   3 2.34   4 2.34   5 2.35   7 2.35
  27  0.500  0.750  0.751-   8 2.35   6 2.35   3 2.35   4 2.35
  28  0.250  0.000  0.751-   1 2.34   3 2.34   5 2.35   6 2.35
  29  0.750  0.000  0.751-   2 2.34   4 2.34   5 2.35   6 2.35
  30  0.250  0.500  0.751-   8 2.35   7 2.35   1 2.35   3 2.35
  31  0.750  0.500  0.751-   8 2.35   7 2.35   2 2.35   4 2.35
  32  0.250  0.000  0.249-  13 2.34  15 2.34   9 2.35  10 2.35
  33  0.750  0.000  0.249-  14 2.34  16 2.34   9 2.35  10 2.35
  34  0.250  0.500  0.249-  12 2.35  11 2.35  13 2.35  15 2.35
  35  0.750  0.500  0.249-  12 2.35  11 2.35  14 2.35  16 2.35
  36  0.000  0.250  0.249-  13 2.34  14 2.34   9 2.35  11 2.35
  37  0.500  0.250  0.249-  12 2.35  10 2.35  13 2.35  14 2.35
  38  0.000  0.750  0.249-  15 2.34  16 2.34   9 2.35  11 2.35
  39  0.500  0.750  0.249-  12 2.35  10 2.35  15 2.35  16 2.35
  40  0.000  0.000  0.000-   1 3.32   2 3.32   3 3.32   4 3.32  13 3.32  14 3.32  15 3.32  16 3.32

  LATTYP: Found a simple tetragonal cell.
 ALAT       =     7.8793598439
 C/A-ratio  =     1.5781187256

  Lattice vectors:

 A1 = (   7.8793598439,   0.0000000000,   0.0000000000)
 A2 = (   0.0000000000,   7.8793598439,   0.0000000000)
 A3 = (   0.0000000000,   0.0000000000,  12.4345653154)

Analysis of symmetry for initial positions (statically):
 Subroutine PRICEL returns:
 Original cell was already a primitive cell.

 Routine SETGRP: Setting up the symmetry group for a
 simple tetragonal supercell.

 Subroutine GETGRP returns: Found 16 space group operations
 (whereof 16 operations were pure point group operations)
 out of a pool of 16 trial point group operations.

The static configuration has the point symmetry D_4h.

Analysis of symmetry for dynamics (positions and initial velocities):
 Subroutine PRICEL returns:
 Original cell was already a primitive cell.

 Routine SETGRP: Setting up the symmetry group for a
 simple tetragonal supercell.

 Subroutine GETGRP returns: Found 16 space group operations
 (whereof 16 operations were pure point group operations)
 out of a pool of 16 trial point group operations.

The dynamic configuration has the point symmetry D_4h.

 Subroutine INISYM returns: Found 16 space group operations
 (whereof 16 operations are pure point group operations),
 and found     1 'primitive' translations

                                     Primitive cell

  volume of cell :     771.9914

  direct lattice vectors                    reciprocal lattice vectors
     7.879359844  0.000000000  0.000000000     0.126913864  0.000000000  0.000000000
     0.000000000  7.879359844  0.000000000     0.000000000  0.126913864  0.000000000
     0.000000000  0.000000000 12.434565315     0.000000000  0.000000000  0.080420986

  length of vectors
     7.879359844  7.879359844 12.434565315     0.126913864  0.126913864  0.080420986

  position of ions in fractional coordinates (direct lattice)
     0.248940772  0.248940772  0.853555486
     0.751059228  0.248940772  0.853555486
     0.248940772  0.751059228  0.853555486
     0.751059228  0.751059228  0.853555486
     0.000000000  0.000000000  0.647447555
     0.500000000  0.000000000  0.648244756
     0.000000000  0.500000000  0.648244756
     0.500000000  0.500000000  0.649147871
     0.000000000  0.000000000  0.352552445
     0.500000000  0.000000000  0.351755244
     0.000000000  0.500000000  0.351755244
     0.500000000  0.500000000  0.350852129
     0.248940772  0.248940772  0.146444514
     0.751059228  0.248940772  0.146444514
     0.248940772  0.751059228  0.146444514
     0.751059228  0.751059228  0.146444514
     0.500000000  0.000000000  0.000000000
     0.000000000  0.500000000  0.000000000
     0.500000000  0.500000000  0.000000000
     0.250048693  0.250048693  0.500000000
     0.749951307  0.250048693  0.500000000
     0.250048693  0.749951307  0.500000000
     0.749951307  0.749951307  0.500000000
     0.000000000  0.249565461  0.750510270
     0.500000000  0.249701222  0.751359725
     0.000000000  0.750434539  0.750510270
     0.500000000  0.750298778  0.751359725
     0.249565461  0.000000000  0.750510270
     0.750434539  0.000000000  0.750510270
     0.249701222  0.500000000  0.751359725
     0.750298778  0.500000000  0.751359725
     0.249565461  0.000000000  0.249489730
     0.750434539  0.000000000  0.249489730
     0.249701222  0.500000000  0.248640275
     0.750298778  0.500000000  0.248640275
     0.000000000  0.249565461  0.249489730
     0.500000000  0.249701222  0.248640275
     0.000000000  0.750434539  0.249489730
     0.500000000  0.750298778  0.248640275
     0.000000000  0.000000000  0.000000000

  ion indices of the primitive-cell ions
   primitive index   ion index
                 1           1
                 2           2
                 3           3
                 4           4
                 5           5
                 6           6
                 7           7
                 8           8
                 9           9
                10          10
                11          11
                12          12
                13          13
                14          14
                15          15
                16          16
                17          17
                18          18
                19          19
                20          20
                21          21
                22          22
                23          23
                24          24
                25          25
                26          26
                27          27
                28          28
                29          29
                30          30
                31          31
                32          32
                33          33
                34          34
                35          35
                36          36
                37          37
                38          38
                39          39
                40          40

 KPOINTS: K-Spacing Value to Generate K-Mesh: 0.03

Automatic generation of k-mesh.
 Grid dimensions read from file:
 generate k-points for:    4    4    3

 Generating k-lattice:

  Cartesian coordinates                     Fractional coordinates (reciprocal lattice)
     0.031728466  0.000000000  0.000000000     0.250000000  0.000000000  0.000000000
     0.000000000  0.031728466  0.000000000     0.000000000  0.250000000  0.000000000
[...]
 next E    =  -208.827748   (d E  =  -0.00000)

[...]

 eigenvalue-minimisations  :  3192
 total energy-change (2. order) : 0.6366463E-10  (-0.2639162E-11)
 number of electron     384.0000005 magnetization
 augmentation part       95.0186846 magnetization

[...]

 d Force =-0.8855423E-11[-0.358E-10, 0.181E-10]  d Energy =-0.2110028E-09 0.202E-09
 d Force = 0.1744532E-04[ 0.174E-04, 0.174E-04]  d Ewald  = 0.1744558E-04-0.258E-09

--------------------------------------- Ionic step        4  -------------------------------------------

[...]

 Broyden mixing:
  rms(total) = 0.12347E-06    rms(broyden)= 0.12346E-06
  rms(prec ) = 0.15123E-06
  weight for this iteration     100.00

 eigenvalues of (default mixing * dielectric matrix)
  average eigenvalue GAMMA=   1.0003
  1.2749  1.2749  0.4511

[...]

--------------------------------------- Iteration      4(   5)  ---------------------------------------

 eigenvalue-minimisations  :  3144
 total energy-change (2. order) :-0.5138645E-09  (-0.7394317E-12)
 number of electron     384.0000005 magnetization
 augmentation part       95.0186846 magnetization

 Free energy of the ion-electron system (eV)
  alpha Z        PSCENC =      1308.50698147
  Ewald energy   TEWEN  =    -29228.86867363
  -Hartree energ DENC   =    -11690.63836042
  -exchange      EXHF   =         0.00000000
  -V(xc)+E(xc)   XCENC  =      1250.06115724
  PAW double counting   =     36136.79115297   -35531.69032018
  entropy T*S    EENTRO =        -0.00000001
  eigenvalues    EBANDS =     -2794.64153130
  atomic energy  EATOM  =     40341.65184589
  Solvation  Ediel_sol  =         0.00000000
  free energy    TOTEN  =      -208.82774798 eV

  energy without entropy =     -208.82774797  energy(sigma->0) =     -208.82774797

 average (electrostatic) potential at core
  the test charge radii are     1.0856  1.0808  0.7215  0.9698
  (the norm of the test charge is              1.0000)
       1-104.9435       2-104.9435       3-104.9435       4-104.9435       5-104.9347
       6-104.9397       7-104.9397       8-104.9323       9-104.9347      10-104.9397
      11-104.9397      12-104.9323      13-104.9435      14-104.9435      15-104.9435
      16-104.9435      17 -50.7678      18 -50.7678      19 -50.7331      20 -50.7492
      21 -50.7492      22 -50.7492      23 -50.7492      24 -69.0560      25 -69.0416
      26 -69.0560      27 -69.0416      28 -69.0560      29 -69.0560      30 -69.0416
      31 -69.0416      32 -69.0560      33 -69.0560      34 -69.0416      35 -69.0416
      36 -69.0560      37 -69.0416      38 -69.0560      39 -69.0416      40 -83.8625

 E-fermi :   6.3687     XC(G=0): -10.4214     alpha+bet :-11.8608

 val. band max:        6.1883184005   @ k =   0.0000   0.0000   0.3333
 cond. band min:       6.5378072743   @ k =   0.0000   0.0000   0.0000
 fundamental gap:      0.3494888739
 Fermi energy:         6.3687087669

[...]

 k-point    12 :       0.5000    0.5000    0.3333
  band No.  band energies     occupation
      1     -16.9322      2.00000
      2     -16.9296      2.00000
      3     -16.9296      2.00000
      4     -16.9287      2.00000
      5     -16.9275      2.00000
      6     -16.9262      2.00000
      7     -16.9262      2.00000
      8     -16.9240      2.00000
      9     -16.8482      2.00000
     10     -16.8450      2.00000
     11     -16.8445      2.00000
     12     -16.8445      2.00000
     13     -16.8419      2.00000
     14     -16.8386      2.00000
     15     -16.8379      2.00000
     16     -16.8379      2.00000
     17     -16.7940      2.00000
     18     -16.7936      2.00000
     19     -16.7936      2.00000
     20     -16.7925      2.00000
     21     -16.7835      2.00000
     22     -16.7835      2.00000
     23     -16.7821      2.00000
     24     -16.7778      2.00000
     25     -16.7646      2.00000
     26     -16.7634      2.00000
     27     -16.7634      2.00000
     28     -16.7631      2.00000
     29     -16.7626      2.00000
     30     -16.7622      2.00000
     31     -16.7622      2.00000
     32     -16.7615      2.00000
     33     -16.7610      2.00000
     34     -16.7605      2.00000
     35     -16.7601      2.00000
     36     -16.7601      2.00000
     37     -16.7593      2.00000
     38     -16.7593      2.00000
     39     -16.7587      2.00000
     40     -16.7580      2.00000
     41     -16.7444      2.00000
     42     -16.7444      2.00000
     43     -16.7436      2.00000
     44     -16.7436      2.00000
     45     -16.7430      2.00000
     46     -16.7428      2.00000
     47     -16.7428      2.00000
     48     -16.7419      2.00000
     49     -16.7418      2.00000
     50     -16.7417      2.00000
     51     -16.7405      2.00000
     52     -16.7405      2.00000
     53     -16.7397      2.00000
     54     -16.7386      2.00000
     55     -16.7380      2.00000
     56     -16.7379      2.00000
     57     -16.7352      2.00000
     58     -16.7352      2.00000
     59     -16.7334      2.00000
     60     -16.7332      2.00000
[...]
    218      10.3958      0.00000
    219      10.4108      0.00000
    220      10.4293      0.00000
    221      10.4618      0.00000
    222      10.4624      0.00000
    223      10.4624      0.00000
    224      10.4741      0.00000
    225      11.0531      0.00000
    226      11.0621      0.00000
    227      11.0624      0.00000
    228      11.1338      0.00000
    229      11.1429      0.00000
    230      11.1461      0.00000
    231      11.1546      0.00000
    232      11.1554      0.00000

 soft charge-density along one line, spin component           1
         0         1         2         3         4         5         6         7         8         9
 total charge-density along one line

------------------------ aborting loop because EDIFF is reached ----------------------------------------

  FORCE on cell =-STRESS in cart. coord.  units (eV):
  Direction    XX          YY          ZZ          XY          YZ          ZX
  Alpha Z  1308.50698  1308.50698  1308.50698
  Ewald   -7922.18433 -7922.18433-13384.61320    -0.00000     0.00000     0.00000
  Hartree  5492.60920  5492.60920   705.41996    -0.00000    -0.00000    -0.00000
  E(xc)   -1824.53962 -1824.53962 -1826.31024     0.00000    -0.00000    -0.00000
  Local   -5750.81248 -5750.81248  4506.73646    -0.00000     0.00000    -0.00000
  n-local  1574.03058  1582.07917  1583.18212     0.44745    -0.05635     0.10866
  augment  2176.37596  2176.37596  2161.25047    -0.00000     0.00000     0.00000
  Kinetic  4931.62181  4940.39635  4941.32035    -3.43452     0.45037    -0.51425
  Fock        0.00000     0.00000     0.00000     0.00000     0.00000     0.00000
  Total      -5.98034    -5.98034    -4.50709     0.00000     0.00000     0.00000
  in kB     -12.41150   -12.41150    -9.35393     0.00000     0.00000     0.00000

 VOLUME and BASIS-vectors are now :
  energy-cutoff  :      520.00
  volume of cell :      771.99
      direct lattice vectors                 reciprocal lattice vectors
     7.879359844  0.000000000  0.000000000     0.126913864  0.000000000  0.000000000
     0.000000000  7.879359844  0.000000000     0.000000000  0.126913864  0.000000000
     0.000000000  0.000000000 12.434565315     0.000000000  0.000000000  0.080420986

  length of vectors
     7.879359844  7.879359844 12.434565315     0.126913864  0.126913864  0.080420986

 FORCES acting on ions
    electron-ion (+dipol)            ewald-force                    non-local-force                 convergence-correction
   -.584E+01 -.584E+01 -.440E+03   0.574E+01 0.574E+01 0.451E+03   0.990E-01 0.990E-01 -.107E+02   0.596E-07 0.596E-07 -.483E-06
   0.584E+01 -.584E+01 -.440E+03   -.574E+01 0.574E+01 0.451E+03   -.990E-01 0.990E-01 -.107E+02   -.596E-07 0.596E-07 -.483E-06
   -.584E+01 0.584E+01 -.440E+03   0.574E+01 -.574E+01 0.451E+03   0.990E-01 -.990E-01 -.107E+02   0.596E-07 -.596E-07 -.483E-06
   0.584E+01 0.584E+01 -.440E+03   -.574E+01 -.574E+01 0.451E+03   -.990E-01 -.990E-01 -.107E+02   -.596E-07 -.596E-07 -.483E-06
   0.136E-11 -.185E-10 0.471E+03   0.568E-13 0.284E-13 -.482E+03   -.379E-18 -.167E-18 0.106E+02   0.101E-10 -.962E-12 0.161E-05
   0.738E-12 0.134E-11 0.470E+03   0.171E-12 0.293E-13 -.481E+03   -.244E-17 -.543E-18 0.106E+02   -.105E-10 0.431E-11 -.430E-06
   0.138E-11 0.798E-11 0.470E+03   -.853E-13 0.853E-13 -.481E+03   -.124E-17 -.177E-18 0.106E+02   0.318E-11 0.266E-11 -.430E-06
   0.731E-12 -.206E-11 0.470E+03   0.114E-12 0.000E+00 -.481E+03   0.782E-18 -.655E-19 0.107E+02   -.363E-11 -.337E-12 -.254E-05
   0.138E-11 0.128E-11 -.471E+03   -.284E-13 0.284E-13 0.482E+03   -.389E-18 -.137E-18 -.106E+02   -.125E-11 -.292E-12 -.161E-05
   0.678E-12 -.586E-12 -.470E+03   -.171E-12 0.853E-13 0.481E+03   0.158E-17 -.225E-18 -.106E+02   0.924E-12 -.332E-11 0.430E-06
   0.135E-11 -.198E-11 -.470E+03   0.142E-12 -.568E-13 0.481E+03   0.610E-18 0.688E-18 -.106E+02   -.385E-11 -.228E-12 0.430E-06
   0.700E-12 0.814E-11 -.470E+03   -.568E-13 -.153E-12 0.481E+03   -.937E-18 -.904E-19 -.107E+02   0.354E-11 0.136E-11 0.254E-05
   -.584E+01 -.584E+01 0.440E+03   0.574E+01 0.574E+01 -.451E+03   0.990E-01 0.990E-01 0.107E+02   0.596E-07 0.596E-07 0.483E-06
   0.584E+01 -.584E+01 0.440E+03   -.574E+01 0.574E+01 -.451E+03   -.990E-01 0.990E-01 0.107E+02   -.596E-07 0.596E-07 0.483E-06
   -.584E+01 0.584E+01 0.440E+03   0.574E+01 -.574E+01 -.451E+03   0.990E-01 -.990E-01 0.107E+02   0.596E-07 -.596E-07 0.483E-06
   0.584E+01 0.584E+01 0.440E+03   -.574E+01 -.574E+01 -.451E+03   -.990E-01 -.990E-01 0.107E+02   -.596E-07 -.596E-07 0.483E-06
   0.282E-13 0.457E-13 -.235E-12   0.000E+00 0.142E-13 0.844E-11   -.124E-26 0.216E-26 -.396E-26   0.482E-12 0.114E-11 0.447E-11
   0.456E-13 0.186E-11 -.123E-11   -.568E-13 -.568E-13 0.842E-11   -.701E-27 0.167E-26 -.361E-26   -.345E-11 -.831E-12 0.465E-11
   0.260E-13 -.566E-12 -.951E-12   0.284E-13 0.000E+00 0.533E-11   -.933E-27 -.232E-26 -.504E-27   0.337E-11 -.109E-11 0.504E-11
   -.215E+01 -.215E+01 -.135E-07   0.217E+01 0.217E+01 -.778E-12   -.108E-01 -.108E-01 -.995E-21   0.968E-06 0.968E-06 -.480E-11
   0.215E+01 -.215E+01 -.187E-11   -.217E+01 0.217E+01 -.792E-12   0.108E-01 -.108E-01 0.173E-21   -.968E-06 0.968E-06 -.780E-11
   -.215E+01 0.215E+01 -.780E-12   0.217E+01 -.217E+01 -.824E-12   -.108E-01 0.108E-01 -.108E-21   0.968E-06 -.968E-06 -.463E-11
   0.215E+01 0.215E+01 0.135E-07   -.217E+01 -.217E+01 -.817E-12   0.108E-01 0.108E-01 0.874E-21   -.968E-06 -.968E-06 -.986E-11
   0.476E-12 -.214E+01 0.841E+01   -.426E-13 0.214E+01 -.855E+01   -.110E-18 0.914E-02 0.149E+00   0.194E-11 -.189E-06 -.785E-06
   0.273E-12 -.154E+01 0.392E+01   0.426E-13 0.151E+01 -.378E+01   -.135E-18 0.230E-01 -.146E+00   -.214E-11 -.196E-06 -.689E-06
   0.499E-12 0.214E+01 0.841E+01   -.711E-13 -.214E+01 -.855E+01   -.305E-19 -.914E-02 0.149E+00   0.344E-11 0.189E-06 -.785E-06
   0.264E-12 0.154E+01 0.392E+01   0.711E-13 -.151E+01 -.378E+01   -.121E-18 -.230E-01 -.146E+00   -.362E-11 0.196E-06 -.689E-06
   -.214E+01 -.279E-11 0.841E+01   0.214E+01 -.107E-13 -.855E+01   0.914E-02 -.379E-18 0.149E+00   -.189E-06 0.368E-12 -.785E-06
   0.214E+01 0.235E-12 0.841E+01   -.214E+01 -.142E-13 -.855E+01   -.914E-02 -.290E-19 0.149E+00   0.189E-06 0.138E-11 -.785E-06
   -.154E+01 -.303E-12 0.392E+01   0.151E+01 -.533E-13 -.378E+01   0.230E-01 0.197E-18 -.146E+00   -.196E-06 0.819E-12 -.689E-06
   0.154E+01 0.199E-12 0.392E+01   -.151E+01 -.426E-13 -.378E+01   -.230E-01 -.418E-19 -.146E+00   0.196E-06 -.140E-11 -.689E-06
   -.214E+01 -.285E-12 -.841E+01   0.214E+01 0.320E-13 0.855E+01   0.914E-02 0.339E-19 -.149E+00   -.189E-06 -.118E-12 0.785E-06
   0.214E+01 0.213E-11 -.841E+01   -.214E+01 0.284E-13 0.855E+01   -.914E-02 -.103E-18 -.149E+00   0.189E-06 -.347E-11 0.785E-06
   -.154E+01 -.224E-11 -.392E+01   0.151E+01 -.284E-13 0.378E+01   0.230E-01 -.336E-18 0.146E+00   -.196E-06 0.117E-12 0.689E-06
   0.154E+01 0.232E-11 -.392E+01   -.151E+01 0.284E-13 0.378E+01   -.230E-01 -.270E-18 0.146E+00   0.196E-06 0.227E-11 0.689E-06
   0.478E-12 -.214E+01 -.841E+01   -.284E-13 0.214E+01 0.855E+01   0.213E-19 0.914E-02 -.149E+00   -.689E-12 -.189E-06 0.785E-06
   0.217E-12 -.154E+01 -.392E+01   0.426E-13 0.151E+01 0.378E+01   -.109E-18 0.230E-01 0.146E+00   0.575E-12 -.196E-06 0.689E-06
   0.485E-12 0.214E+01 -.841E+01   -.284E-13 -.214E+01 0.855E+01   0.164E-18 -.914E-02 -.149E+00   -.278E-11 0.189E-06 0.785E-06
   0.217E-12 0.154E+01 -.392E+01   0.568E-13 -.151E+01 0.378E+01   0.223E-18 -.230E-01 0.146E+00   0.263E-11 0.196E-06 0.689E-06
   0.348E-13 -.118E-11 -.125E-11   0.000E+00 -.142E-13 0.533E-11   -.613E-26 0.251E-27 -.160E-26   -.547E-12 0.379E-12 0.463E-11
   0.138E-10 0.101E-10 -.308E-09   -.568E-13 -.174E-12 0.107E-12   -.317E-17 -.347E-17 -.716E-14   -.133E-12 0.283E-11 0.491E-10

 POSITION                                       TOTAL-FORCE (eV/Angst)
      1.96149      1.96149     10.61359         0.000000      0.000000     -0.000002
      5.91787      1.96149     10.61359        -0.000000      0.000000     -0.000002
      1.96149      5.91787     10.61359         0.000000     -0.000000     -0.000002
      5.91787      5.91787     10.61359        -0.000000     -0.000000     -0.000002
      7.87936      7.87936      8.05073        -0.000000      0.000000      0.000002
      3.93968      7.87936      8.06064        -0.000000      0.000000      0.000001
      7.87936      3.93968      8.06064        -0.000000      0.000000      0.000001
      3.93968      3.93968      8.07187        -0.000000      0.000000      0.000001
      7.87936      0.00000      4.38384        -0.000000      0.000000     -0.000002
      3.93968      0.00000      4.37392        -0.000000      0.000000     -0.000001
      7.87936      3.93968      4.37392        -0.000000      0.000000     -0.000001
      3.93968      3.93968      4.36269        -0.000000      0.000000     -0.000001
      1.96149      1.96149      1.82097         0.000000      0.000000      0.000002
      5.91787      1.96149      1.82097        -0.000000      0.000000      0.000002
      1.96149      5.91787      1.82097         0.000000     -0.000000      0.000002
      5.91787      5.91787      1.82097        -0.000000     -0.000000      0.000002
      3.93968      7.87936      0.00000        -0.000000      0.000000     -0.000000
      7.87936      3.93968      0.00000        -0.000000      0.000000     -0.000000
      3.93968      3.93968      0.00000        -0.000000      0.000000     -0.000000
      1.97022      1.97022      6.21728        -0.000007     -0.000007     -0.000000
      5.90914      1.97022      6.21728         0.000007     -0.000007     -0.000000
      1.97022      5.90914      6.21728        -0.000007      0.000007     -0.000000
      5.90914      5.90914      6.21728         0.000007      0.000007     -0.000000
      7.87936      1.96642      9.33227        -0.000000      0.000001      0.000002
      3.93968      1.96749      9.34283        -0.000000      0.000002      0.000001
      7.87936      5.91294      9.33227        -0.000000     -0.000001      0.000002
      3.93968      5.91187      9.34283        -0.000000     -0.000002      0.000001
      1.96642      7.87936      9.33227         0.000001      0.000000      0.000002
      5.91294      0.00000      9.33227        -0.000001      0.000000      0.000002
      1.96749      3.93968      9.34283         0.000002      0.000000      0.000001
      5.91187      3.93968      9.34283        -0.000002      0.000000      0.000001
      1.96642      0.00000      3.10230         0.000001      0.000000     -0.000002
      5.91294      7.87936      3.10230        -0.000001      0.000000     -0.000002
      1.96749      3.93968      3.09173         0.000002      0.000000     -0.000001
      5.91187      3.93968      3.09173        -0.000002      0.000000     -0.000001
      7.87936      1.96642      3.10230        -0.000000      0.000001     -0.000002
      3.93968      1.96749      3.09173        -0.000000      0.000002     -0.000001
      7.87936      5.91294      3.10230        -0.000000     -0.000001     -0.000002
      3.93968      5.91187      3.09173        -0.000000     -0.000002     -0.000001
      7.87936      7.87936      0.00000        -0.000000      0.000000     -0.000000
    total drift:                                0.000000      0.000000     -0.000000

  FREE ENERGIE OF THE ION-ELECTRON SYSTEM (eV)
  free  energy   TOTEN  =      -208.82774798 eV

  energy  without entropy=     -208.82774797  energy(sigma->0) =     -208.82774797

 d Force = 0.1556783E-10[ 0.736E-11, 0.238E-10]  d Energy = 0.5966285E-09-0.581E-09
 d Force =-0.1159194E-04[-0.116E-04,-0.116E-04]  d Ewald  =-0.1159220E-04 0.262E-09

 reached required accuracy - stopping structural energy minimisation