 vasp.6.4.3 19Mar24 (build Apr 09 2025 20:43:19) complex

 executed on             LinuxIFC date 2025.04.16  14:04:11

 INCAR:
   PREC = Accurate
   IBRION = 2
   NSW = 100
   NELMIN = 5
   ISIF = 2
   ENCUT = 520
   EDIFF = 1.000000e-07
   EDIFFG = -1.000000e-4
   ISMEAR = 0
   SIGMA = 0.05
   IALGO = 38
   LREAL = .FALSE.
   ADDGRID = .TRUE.
   LWAVE = .FALSE.
   LCHARG = .FALSE.
   NCORE = 9

 POTCAR:    PAW_PBE Bi_d 06Sep2000
 POTCAR:    PAW_PBE Se 06Sep2000
 POTCAR:    PAW_PBE O 08Apr2002
 POTCAR:    PAW_PBE S 06Sep2000
 POTCAR:    PAW_PBE Bi_d 06Sep2000
   VRHFIN =Bi:

   TITEL  = PAW_PBE Bi_d 06Sep2000
   POMASS =  208.980; ZVAL   =   15.000    mass and valenz
   ENMAX  =  242.839; ENMIN  =  182.129 eV

   TITEL  = PAW_PBE Se 06Sep2000
   POMASS =   78.960; ZVAL   =    6.000    mass and valenz
   ENMAX  =  211.555; ENMIN  =  158.666 eV

   TITEL  = PAW_PBE O 08Apr2002
   POMASS =   16.000; ZVAL   =    6.000    mass and valenz
   ENMAX  =  400.000; ENMIN  =  300.000 eV

   TITEL  = PAW_PBE S 06Sep2000
   POMASS =   32.066; ZVAL   =    6.000    mass and valenz
   ENMAX  =  258.689; ENMIN  =  194.016 eV

  PAW_PBE Bi_d 06Sep2000                :
  PAW_PBE Se 06Sep2000                  :
  PAW_PBE O 08Apr2002                   :
  PAW_PBE S 06Sep2000                   :

 POSCAR: generated by phonopy
  positions in direct lattice
  velocities in cartesian coordinates

 exchange-correlation table for PE
   RHO(1)=    0.500       N(1)  =     2000
   RHO(2)=  100.500       N(2)  =     4000

 ion  position               nearest neighbor table
   1  0.248  0.248  0.849-  24 2.38  28 2.38  25 2.40  30 2.40   8 3.80   7 3.81   6 3.81   5 3.83
                            13 3.86
   2  0.752  0.248  0.849-  24 2.38  29 2.38  25 2.40  31 2.40   8 3.80   7 3.81   6 3.81   5 3.83
                            14 3.86
   3  0.248  0.752  0.849-  26 2.38  28 2.38  27 2.40  30 2.40   8 3.80   7 3.81   6 3.81   5 3.83
                            15 3.86
   4  0.752  0.752  0.849-  26 2.38  29 2.38  27 2.40  31 2.40   8 3.80   7 3.81   6 3.81   5 3.83
                            16 3.86
   5  0.000  0.000  0.650-  24 2.41  26 2.41  28 2.41  29 2.41   1 3.83   2 3.83   3 3.83   4 3.83
                             9 3.84
   6  0.500  0.000  0.653-  28 2.38  29 2.38  25 2.39  27 2.39   1 3.81   2 3.81   3 3.81   4 3.81
                            10 3.92
   7  0.000  0.500  0.653-  24 2.38  26 2.38  30 2.39  31 2.39   1 3.81   2 3.81   3 3.81   4 3.81
                            11 3.92
   8  0.500  0.500  0.656-  25 2.36  27 2.36  30 2.36  31 2.36   1 3.80   2 3.80   3 3.80   4 3.80

   9  0.000  0.000  0.350-  32 2.41  33 2.41  36 2.41  38 2.41  13 3.83  14 3.83  15 3.83  16 3.83
                             5 3.84
  10  0.500  0.000  0.347-  32 2.38  33 2.38  37 2.39  39 2.39  13 3.81  14 3.81  15 3.81  16 3.81
                             6 3.92
  11  0.000  0.500  0.347-  36 2.38  38 2.38  34 2.39  35 2.39  13 3.81  14 3.81  15 3.81  16 3.81
                             7 3.92
  12  0.500  0.500  0.344-  34 2.36  35 2.36  37 2.36  39 2.36  13 3.80  14 3.80  15 3.80  16 3.80

  13  0.248  0.248  0.151-  32 2.38  36 2.38  34 2.40  37 2.40  12 3.80  11 3.81  10 3.81   9 3.83
                             1 3.86
  14  0.752  0.248  0.151-  33 2.38  36 2.38  35 2.40  37 2.40  12 3.80  11 3.81  10 3.81   9 3.83
                             2 3.86
  15  0.248  0.752  0.151-  32 2.38  38 2.38  34 2.40  39 2.40  12 3.80  11 3.81  10 3.81   9 3.83
                             3 3.86
  16  0.752  0.752  0.151-  33 2.38  38 2.38  35 2.40  39 2.40  12 3.80  11 3.81  10 3.81   9 3.83
                             4 3.86
  17  0.500  0.000  0.000-
  18  0.000  0.500  0.000-
  19  0.500  0.500  0.000-
  20  0.246  0.246  0.500-
  21  0.754  0.246  0.500-
  22  0.246  0.754  0.500-
  23  0.754  0.754  0.500-
  24  0.000  0.251  0.751-   1 2.38   2 2.38   7 2.38   5 2.41
  25  0.500  0.251  0.751-   8 2.36   6 2.39   1 2.40   2 2.40
  26  0.000  0.749  0.751-   3 2.38   4 2.38   7 2.38   5 2.41
  27  0.500  0.749  0.751-   8 2.36   6 2.39   3 2.40   4 2.40
  28  0.251  0.000  0.751-   1 2.38   3 2.38   6 2.38   5 2.41
  29  0.749  0.000  0.751-   2 2.38   4 2.38   6 2.38   5 2.41
  30  0.251  0.500  0.751-   8 2.36   7 2.39   1 2.40   3 2.40
  31  0.749  0.500  0.751-   8 2.36   7 2.39   2 2.40   4 2.40
  32  0.251  0.000  0.249-  13 2.38  15 2.38  10 2.38   9 2.41
  33  0.749  0.000  0.249-  14 2.38  16 2.38  10 2.38   9 2.41
  34  0.251  0.500  0.249-  12 2.36  11 2.39  13 2.40  15 2.40
  35  0.749  0.500  0.249-  12 2.36  11 2.39  14 2.40  16 2.40
  36  0.000  0.251  0.249-  13 2.38  14 2.38  11 2.38   9 2.41
  37  0.500  0.251  0.249-  12 2.36  10 2.39  13 2.40  14 2.40
  38  0.000  0.749  0.249-  15 2.38  16 2.38  11 2.38   9 2.41
  39  0.500  0.749  0.249-  12 2.36  10 2.39  15 2.40  16 2.40
  40  0.000  0.000  0.000-

  LATTYP: Found a simple tetragonal cell.
 ALAT       =     8.1145646154
 C/A-ratio  =     1.5781187256

  Lattice vectors:

 A1 = (   8.1145646154,   0.0000000000,   0.0000000000)
 A2 = (   0.0000000000,   8.1145646154,   0.0000000000)
 A3 = (   0.0000000000,   0.0000000000,  12.8057463696)

Analysis of symmetry for initial positions (statically):
 Subroutine PRICEL returns:
 Original cell was already a primitive cell.

 Routine SETGRP: Setting up the symmetry group for a
 simple tetragonal supercell.

 Subroutine GETGRP returns: Found 16 space group operations
 (whereof 16 operations were pure point group operations)
 out of a pool of 16 trial point group operations.

The static configuration has the point symmetry D_4h.

Analysis of symmetry for dynamics (positions and initial velocities):
 Subroutine PRICEL returns:
 Original cell was already a primitive cell.

 Routine SETGRP: Setting up the symmetry group for a
 simple tetragonal supercell.

 Subroutine GETGRP returns: Found 16 space group operations
 (whereof 16 operations were pure point group operations)
 out of a pool of 16 trial point group operations.

The dynamic configuration has the point symmetry D_4h.

 Subroutine INISYM returns: Found 16 space group operations
 (whereof 16 operations are pure point group operations),
 and found     1 'primitive' translations

                                     Primitive cell

  volume of cell :     843.2092

  direct lattice vectors                    reciprocal lattice vectors
     8.114564615  0.000000000  0.000000000     0.123235201  0.000000000  0.000000000
     0.000000000  8.114564615  0.000000000     0.000000000  0.123235201  0.000000000
     0.000000000  0.000000000 12.805746370     0.000000000  0.000000000  0.078089943

  length of vectors
     8.114564615  8.114564615 12.805746370     0.123235201  0.123235201  0.078089943

  position of ions in fractional coordinates (direct lattice)
     0.248479351  0.248479351  0.849189155
     0.751520649  0.248479351  0.849189155
     0.248479351  0.751520649  0.849189155
     0.751520649  0.751520649  0.849189155
     0.000000000  0.000000000  0.649925397
     0.500000000  0.000000000  0.653066062
     0.000000000  0.500000000  0.653066062
     0.500000000  0.500000000  0.655857363
     0.000000000  0.000000000  0.350074603
     0.500000000  0.000000000  0.346933938
     0.000000000  0.500000000  0.346933938
     0.500000000  0.500000000  0.344142637
     0.248479351  0.248479351  0.150810845
     0.751520649  0.248479351  0.150810845
     0.248479351  0.751520649  0.150810845
     0.751520649  0.751520649  0.150810845
     0.500000000  0.000000000  0.000000000
     0.000000000  0.500000000  0.000000000
     0.500000000  0.500000000  0.000000000
     0.245531482  0.245531482  0.500000000
     0.754468518  0.245531482  0.500000000
     0.245531482  0.754468518  0.500000000
     0.754468518  0.754468518  0.500000000
     0.000000000  0.250693159  0.751124739
     0.500000000  0.250698907  0.751043701
     0.000000000  0.749306841  0.751124739
     0.500000000  0.749301093  0.751043701
     0.250693159  0.000000000  0.751124739
     0.749306841  0.000000000  0.751124739
     0.250698907  0.500000000  0.751043701
     0.749301093  0.500000000  0.751043701
     0.250693159  0.000000000  0.248875261
     0.749306841  0.000000000  0.248875261
     0.250698907  0.500000000  0.248956299
     0.749301093  0.500000000  0.248956299
     0.000000000  0.250693159  0.248875261
     0.500000000  0.250698907  0.248956299
     0.000000000  0.749306841  0.248875261
     0.500000000  0.749301093  0.248956299
     0.000000000  0.000000000  0.000000000

  ion indices of the primitive-cell ions
   primitive index   ion index
                 1           1
                 2           2
                 3           3
                 4           4
                 5           5
                 6           6
                 7           7
                 8           8
                 9           9
                10          10
                11          11
                12          12
                13          13
                14          14
                15          15
                16          16
                17          17
                18          18
                19          19
                20          20
                21          21
                22          22
                23          23
                24          24
                25          25
                26          26
                27          27
                28          28
                29          29
                30          30
                31          31
                32          32
                33          33
                34          34
                35          35
                36          36
                37          37
                38          38
                39          39
                40          40

 KPOINTS: K-Spacing Value to Generate K-Mesh: 0.03

Automatic generation of k-mesh.
 Grid dimensions read from file:
 generate k-points for:    4    4    3

 Generating k-lattice:

  Cartesian coordinates                     Fractional coordinates (reciprocal lattice)
     0.030808800  0.000000000  0.000000000     0.250000000  0.000000000  0.000000000
     0.000000000  0.030808800  0.000000000     0.000000000  0.250000000  0.000000000
     0.000000000  0.000000000  0.026029981     0.000000000  0.000000000  0.333333333

  Length of vectors
     0.030808800  0.030808800  0.026029981

  Shift w.r.t. Gamma in fractional coordinates (k-lattice)
     0.000000000  0.000000000  0.000000000

 Subroutine IBZKPT returns following result:

 Found     12 irreducible k-points:

 Following reciprocal coordinates:
            Coordinates               Weight
  0.000000  0.000000  0.000000      1.000000
  0.250000  0.000000  0.000000      4.000000
  0.500000  0.000000  0.000000      2.000000
  0.250000  0.250000  0.000000      4.000000
  0.500000  0.250000  0.000000      4.000000
  0.500000  0.500000  0.000000      1.000000
  0.000000  0.000000  0.333333      2.000000
  0.250000  0.000000  0.333333      8.000000
  0.500000  0.000000  0.333333      4.000000
  0.250000  0.250000  0.333333      8.000000
  0.500000  0.250000  0.333333      8.000000
[...]

[...]

 d Force = 0.3782479E-10[-0.673E-09, 0.749E-09]  d Energy =-0.2866727E-08 0.290E-08
 d Force = 0.5216818E-02[ 0.522E-02, 0.522E-02]  d Ewald  = 0.5216818E-02-0.255E-09

--------------------------------------- Ionic step        5  -------------------------------------------

[...]

 eigenvalue-minimisations  :  3096
 total energy-change (2. order) : 0.6884875E-09  (-0.1794746E-10)
 number of electron     384.0000009 magnetization
 augmentation part       94.9819153 magnetization

 Broyden mixing:
  rms(total) = 0.74566E-06    rms(broyden)= 0.74556E-06
  rms(prec ) = 0.86108E-06
  weight for this iteration     100.00

 eigenvalues of (default mixing * dielectric matrix)
  average eigenvalue GAMMA=   1.0605
  1.3771  1.3771  0.4272

[...]

--------------------------------------- Iteration      5(   5)  ---------------------------------------

 eigenvalue-minimisations  :  3096
 total energy-change (2. order) :-0.8285497E-09  (-0.8679702E-11)
 number of electron     384.0000009 magnetization
 augmentation part       94.9819153 magnetization

 Free energy of the ion-electron system (eV)
  alpha Z        PSCENC =      1197.98996456
  Ewald energy   TEWEN  =    -27949.94703448
  -Hartree energ DENC   =    -12498.02932129
  -exchange      EXHF   =         0.00000000
  -V(xc)+E(xc)   XCENC  =      1242.27951116
  PAW double counting   =     35564.74189572   -34954.00961264
  entropy T*S    EENTRO =        -0.00192267
  eigenvalues    EBANDS =     -3151.78741265
  atomic energy  EATOM  =     40341.65184589
  Solvation  Ediel_sol  =         0.00000000
  free energy    TOTEN  =      -207.11208640 eV

  energy without entropy =     -207.11016373  energy(sigma->0) =     -207.11112507

 average (electrostatic) potential at core
  the test charge radii are     1.0856  1.0808  0.7215  0.9698
  (the norm of the test charge is              1.0000)
       1-106.0572       2-106.0572       3-106.0572       4-106.0572       5-106.0331
       6-106.0536       7-106.0536       8-106.0590       9-106.0331      10-106.0536
      11-106.0536      12-106.0590      13-106.0572      14-106.0572      15-106.0572
      16-106.0572      17 -51.6135      18 -51.6135      19 -51.5572      20 -51.6013
      21 -51.6013      22 -51.6013      23 -51.6013      24 -69.9985      25 -70.0139
      26 -69.9985      27 -70.0139      28 -69.9985      29 -69.9985      30 -70.0139
      31 -70.0139      32 -69.9985      33 -69.9985      34 -70.0139      35 -70.0139
      36 -69.9985      37 -70.0139      38 -69.9985      39 -70.0139      40 -84.7134

 E-fermi :   5.4493     XC(G=0):  -9.9778     alpha+bet :-10.8591

 val. band max:        5.4030573653   @ k =   0.0000   0.0000   0.3333
 cond. band min:       5.4502589454   @ k =   0.0000   0.0000   0.0000
 fundamental gap:      0.0472015801
 Fermi energy:         5.4493434265

[...]

 k-point    12 :       0.5000    0.5000    0.3333
  band No.  band energies     occupation
      1     -17.9803      2.00000
      2     -17.9787      2.00000
      3     -17.9763      2.00000
      4     -17.9763      2.00000
      5     -17.9746      2.00000
      6     -17.9746      2.00000
      7     -17.9713      2.00000
      8     -17.9694      2.00000
      9     -17.9127      2.00000
     10     -17.9094      2.00000
     11     -17.9081      2.00000
     12     -17.9078      2.00000
     13     -17.9078      2.00000
     14     -17.9049      2.00000
     15     -17.9044      2.00000
     16     -17.9044      2.00000
     17     -17.8751      2.00000
     18     -17.8728      2.00000
     19     -17.8728      2.00000
     20     -17.8724      2.00000
     21     -17.8692      2.00000
     22     -17.8654      2.00000
     23     -17.8654      2.00000
     24     -17.8590      2.00000
     25     -17.8557      2.00000
     26     -17.8527      2.00000
     27     -17.8527      2.00000
     28     -17.8519      2.00000
     29     -17.8519      2.00000
     30     -17.8500      2.00000
     31     -17.8496      2.00000
     32     -17.8484      2.00000
     33     -17.8482      2.00000
     34     -17.8452      2.00000
     35     -17.8452      2.00000
     36     -17.8451      2.00000
     37     -17.8447      2.00000
     38     -17.8430      2.00000
     39     -17.8423      2.00000
     40     -17.8423      2.00000
     41     -17.8423      2.00000
     42     -17.8413      2.00000
     43     -17.8388      2.00000
     44     -17.8388      2.00000
     45     -17.8388      2.00000
     46     -17.8364      2.00000
     47     -17.8364      2.00000
     48     -17.8315      2.00000
     49     -17.8284      2.00000
     50     -17.8276      2.00000
     51     -17.8270      2.00000
     52     -17.8270      2.00000
     53     -17.8266      2.00000
     54     -17.8258      2.00000
     55     -17.8258      2.00000
     56     -17.8246      2.00000
     57     -17.8246      2.00000
     58     -17.8241      2.00000
     59     -17.8241      2.00000
     60     -17.8193      2.00000
[...]
    218       8.9053      0.00000
    219       8.9158      0.00000
    220       8.9194      0.00000
    221       9.0577      0.00000
    222       9.0677      0.00000
    223       9.0677      0.00000
    224       9.1018      0.00000
    225       9.6258      0.00000
    226       9.6258      0.00000
    227       9.6682      0.00000
    228       9.6958      0.00000
    229       9.7121      0.00000
    230       9.7598      0.00000
    231       9.7651      0.00000
    232       9.7849      0.00000

 soft charge-density along one line, spin component           1
         0         1         2         3         4         5         6         7         8         9
 total charge-density along one line

------------------------ aborting loop because EDIFF is reached ----------------------------------------

  FORCE on cell =-STRESS in cart. coord.  units (eV):
  Direction    XX          YY          ZZ          XY          YZ          ZX
  Alpha Z  1197.98996  1197.98996  1197.98996
  Ewald   -7013.44712 -7013.44712-13923.16372    -0.00000    -0.00000     0.00000
  Hartree  6136.05187  6136.05187   225.92559    -0.00000    -0.00000    -0.00000
  E(xc)   -1817.79488 -1817.79488 -1820.18446    -0.00000     0.00000    -0.00000
  Local   -7181.28253 -7181.28253  5639.23182     0.00000     0.00000    -0.00000
  n-local  1561.11798  1571.15382  1565.94313     0.22105    -0.05788     0.07783
  augment  2176.16056  2176.16056  2161.74405    -0.00000     0.00000     0.00000
  Kinetic  4894.71340  4904.68096  4925.51881    -3.04858     0.41428    -0.43885
  Fock        0.00000     0.00000     0.00000     0.00000     0.00000     0.00000
  Total     -36.48906   -36.48906   -26.99482     0.00000     0.00000     0.00000
  in kB     -69.33266   -69.33266   -51.29271     0.00000     0.00000     0.00000

 VOLUME and BASIS-vectors are now :
  energy-cutoff  :      520.00
  volume of cell :      843.21
      direct lattice vectors                 reciprocal lattice vectors
     8.114564615  0.000000000  0.000000000     0.123235201  0.000000000  0.000000000
     0.000000000  8.114564615  0.000000000     0.000000000  0.123235201  0.000000000
     0.000000000  0.000000000 12.805746370     0.000000000  0.000000000  0.078089943

  length of vectors
     8.114564615  8.114564615 12.805746370     0.123235201  0.123235201  0.078089943

 FORCES acting on ions
    electron-ion (+dipol)            ewald-force                    non-local-force                 convergence-correction
   -.594E+01 -.594E+01 -.453E+03   0.598E+01 0.598E+01 0.463E+03   -.369E-01 -.369E-01 -.100E+02   0.298E-06 0.298E-06 0.803E-06
   0.594E+01 -.594E+01 -.453E+03   -.598E+01 0.598E+01 0.463E+03   0.369E-01 -.369E-01 -.100E+02   -.298E-06 0.298E-06 0.803E-06
   -.594E+01 0.594E+01 -.453E+03   0.598E+01 -.598E+01 0.463E+03   -.369E-01 0.369E-01 -.100E+02   0.298E-06 -.298E-06 0.803E-06
   0.594E+01 0.594E+01 -.453E+03   -.598E+01 -.598E+01 0.463E+03   0.369E-01 0.369E-01 -.100E+02   -.298E-06 -.298E-06 0.803E-06
   -.560E-13 0.656E-12 0.467E+03   0.142E-13 0.568E-13 -.475E+03   0.121E-18 -.198E-18 0.858E+01   0.846E-12 0.399E-12 0.817E-06
   0.745E-12 -.235E-11 0.487E+03   0.284E-13 -.835E-13 -.497E+03   0.592E-18 0.539E-18 0.994E+01   -.118E-11 0.825E-12 -.312E-05
   0.415E-14 -.214E-11 0.487E+03   -.142E-12 0.568E-13 -.497E+03   0.781E-18 -.192E-19 0.994E+01   0.466E-11 -.641E-12 -.312E-05
   0.795E-12 0.863E-11 0.504E+03   -.995E-13 0.178E-13 -.515E+03   -.121E-18 0.699E-18 0.111E+02   -.493E-11 -.121E-11 -.567E-05
   0.228E-13 -.820E-12 -.467E+03   -.711E-13 -.568E-13 0.475E+03   -.166E-18 0.168E-18 -.858E+01   -.890E-11 -.266E-11 -.817E-06
   0.809E-12 0.241E-11 -.487E+03   -.568E-13 0.320E-13 0.497E+03   0.712E-18 0.543E-19 -.994E+01   0.851E-11 -.401E-11 0.312E-05
   -.110E-13 0.383E-11 -.487E+03   0.000E+00 -.853E-13 0.497E+03   -.774E-18 -.490E-19 -.994E+01   -.697E-11 0.210E-11 0.312E-05
   0.836E-12 0.125E-11 -.504E+03   0.568E-13 0.711E-14 0.515E+03   0.917E-19 -.699E-18 -.111E+02   0.668E-11 0.342E-11 0.567E-05
   -.594E+01 -.594E+01 0.453E+03   0.598E+01 0.598E+01 -.463E+03   -.369E-01 -.369E-01 0.100E+02   0.298E-06 0.298E-06 -.803E-06
   0.594E+01 -.594E+01 0.453E+03   -.598E+01 0.598E+01 -.463E+03   0.369E-01 -.369E-01 0.100E+02   -.298E-06 0.298E-06 -.803E-06
   -.594E+01 0.594E+01 0.453E+03   0.598E+01 -.598E+01 -.463E+03   -.369E-01 0.369E-01 0.100E+02   0.298E-06 -.298E-06 -.803E-06
   0.594E+01 0.594E+01 0.453E+03   -.598E+01 -.598E+01 -.463E+03   0.369E-01 0.369E-01 0.100E+02   -.298E-06 -.298E-06 -.803E-06
   0.473E-13 0.376E-13 -.207E-12   -.284E-13 0.284E-13 0.474E-11   0.647E-27 0.559E-26 -.356E-25   -.130E-11 -.797E-12 0.755E-11
   0.159E-13 0.469E-13 -.569E-12   0.284E-13 0.000E+00 0.474E-11   -.865E-26 -.205E-26 0.165E-25   0.197E-11 -.146E-12 0.631E-11
   0.473E-13 -.631E-12 -.112E-12   0.000E+00 -.426E-13 0.792E-11   0.541E-26 -.479E-26 0.347E-25   -.196E-11 0.667E-12 0.669E-11
   -.107E+02 -.107E+02 -.957E-07   0.107E+02 0.107E+02 0.468E-13   -.469E-01 -.469E-01 -.111E-19   0.106E-05 0.106E-05 -.419E-11
   0.107E+02 -.107E+02 -.118E-10   -.107E+02 0.107E+02 0.575E-13   0.469E-01 -.469E-01 -.151E-19   -.106E-05 0.106E-05 -.762E-11
   -.107E+02 0.107E+02 -.130E-11   0.107E+02 -.107E+02 0.397E-13   -.469E-01 0.469E-01 0.118E-19   0.106E-05 -.106E-05 -.474E-11
   0.107E+02 0.107E+02 0.956E-07   -.107E+02 -.107E+02 0.468E-13   0.469E-01 0.469E-01 -.866E-20   -.106E-05 -.106E-05 -.997E-11
   0.342E-13 0.190E+01 0.855E+01   -.128E-12 -.244E+01 -.903E+01   -.200E-19 0.548E+00 0.480E+00   0.345E-11 -.154E-05 -.175E-05
   0.286E-12 0.171E+01 0.527E+01   -.426E-13 -.221E+01 -.478E+01   0.256E-18 0.500E+00 -.495E+00   -.347E-11 -.143E-05 -.989E-06
   0.393E-13 -.190E+01 0.855E+01   -.128E-12 0.244E+01 -.903E+01   0.420E-19 -.548E+00 0.480E+00   0.360E-11 0.154E-05 -.175E-05
   0.293E-12 -.171E+01 0.527E+01   -.426E-13 0.221E+01 -.478E+01   -.204E-18 -.500E+00 -.495E+00   -.365E-11 0.143E-05 -.989E-06
   0.190E+01 -.571E-12 0.855E+01   -.244E+01 -.213E-13 -.903E+01   0.548E+00 0.683E-19 0.480E+00   -.154E-05 0.931E-12 -.175E-05
   -.190E+01 0.165E-12 0.855E+01   0.244E+01 -.426E-13 -.903E+01   -.548E+00 -.164E-18 0.480E+00   0.154E-05 -.775E-12 -.175E-05
   0.171E+01 -.150E-11 0.527E+01   -.221E+01 -.178E-13 -.478E+01   0.500E+00 0.203E-18 -.495E+00   -.143E-05 0.139E-12 -.989E-06
   -.171E+01 0.456E-11 0.527E+01   0.221E+01 -.284E-13 -.478E+01   -.500E+00 -.117E-18 -.495E+00   0.143E-05 -.967E-12 -.989E-06
   0.190E+01 -.496E-16 -.855E+01   -.244E+01 -.178E-13 0.903E+01   0.548E+00 -.261E-18 -.480E+00   -.154E-05 -.392E-12 0.175E-05
   -.190E+01 0.648E-12 -.855E+01   0.244E+01 -.284E-13 0.903E+01   -.548E+00 -.929E-19 -.480E+00   0.154E-05 -.343E-11 0.175E-05
   0.171E+01 -.790E-12 -.527E+01   -.221E+01 -.497E-13 0.478E+01   0.500E+00 0.221E-18 0.495E+00   -.143E-05 0.114E-11 0.989E-06
   -.171E+01 0.198E-11 -.527E+01   0.221E+01 -.284E-13 0.478E+01   -.500E+00 -.206E-18 0.495E+00   0.143E-05 0.169E-11 0.989E-06
   0.975E-13 0.190E+01 -.855E+01   -.853E-13 -.244E+01 0.903E+01   0.162E-18 0.548E+00 -.480E+00   -.121E-11 -.154E-05 0.175E-05
   0.328E-12 0.171E+01 -.527E+01   0.142E-13 -.221E+01 0.478E+01   -.201E-18 0.500E+00 0.495E+00   0.110E-11 -.143E-05 0.989E-06
   0.836E-13 -.190E+01 -.855E+01   -.128E-12 0.244E+01 0.903E+01   -.826E-19 -.548E+00 -.480E+00   -.315E-11 0.154E-05 0.175E-05
   0.347E-12 -.171E+01 -.527E+01   0.000E+00 0.221E+01 0.478E+01   -.258E-18 -.500E+00 0.495E+00   0.302E-11 0.143E-05 0.989E-06
   0.155E-13 0.160E-13 -.134E-11   0.000E+00 -.142E-13 0.772E-11   0.370E-25 0.251E-26 0.610E-25   0.133E-11 0.875E-13 0.617E-11
   0.207E-10 0.114E-10 -.248E-10   0.114E-12 0.462E-13 0.142E-12   0.111E-15 0.555E-16 0.172E-14   -.106E-11 -.882E-12 -.766E-11

 POSITION                                       TOTAL-FORCE (eV/Angst)
      2.01630      2.01630     10.87450         0.000011      0.000011     -0.000009
      6.09826      2.01630     10.87450        -0.000011      0.000011     -0.000009
      2.01630      6.09826     10.87450         0.000011     -0.000011     -0.000009
      6.09826      6.09826     10.87450        -0.000011     -0.000011     -0.000009
      0.00000      0.00000      8.32278         0.000000     -0.000000      0.000061
      4.05728      0.00000      8.36300        -0.000000     -0.000000     -0.000021
      0.00000      4.05728      8.36300        -0.000000     -0.000000     -0.000021
      4.05728      4.05728      8.39874        -0.000000     -0.000000     -0.000076
      0.00000      0.00000      4.48297        -0.000000     -0.000000     -0.000061
      4.05728      0.00000      4.44275         0.000000     -0.000000      0.000021
      0.00000      4.05728      4.44275         0.000000     -0.000000      0.000021
      4.05728      4.05728      4.40701         0.000000     -0.000000      0.000076
      2.01630      2.01630      1.93124         0.000011      0.000011      0.000009
      6.09826      2.01630      1.93124        -0.000011      0.000011      0.000009
      2.01630      6.09826      1.93124         0.000011     -0.000011      0.000009
      6.09826      6.09826      1.93124        -0.000011     -0.000011      0.000009
      4.05728      0.00000      0.00000        -0.000000     -0.000000      0.000000
      0.00000      4.05728      0.00000         0.000000     -0.000000      0.000000
      4.05728      4.05728      0.00000        -0.000000     -0.000000      0.000000
      1.99238      1.99238      6.40287         0.000026      0.000026      0.000000
      6.12218      1.99238      6.40287        -0.000026      0.000026      0.000000
      1.99238      6.12218      6.40287         0.000026     -0.000026      0.000000
      6.12218      6.12218      6.40287        -0.000026     -0.000026      0.000000
      0.00000      2.03427      9.61871         0.000000     -0.000007     -0.000011
      4.05728      2.03431      9.61768         0.000000     -0.000006     -0.000003
      0.00000      6.08030      9.61871        -0.000000      0.000007     -0.000011
      4.05728      6.08025      9.61768         0.000000      0.000006     -0.000003
      2.03427      0.00000      9.61871        -0.000007     -0.000000     -0.000011
      6.08030      0.00000      9.61871         0.000007     -0.000000     -0.000011
      2.03431      4.05728      9.61768        -0.000006     -0.000000     -0.000003
      6.08025      4.05728      9.61768         0.000006     -0.000000     -0.000003
      2.03427      0.00000      3.18703        -0.000007     -0.000000      0.000011
      6.08030      0.00000      3.18703         0.000007     -0.000000      0.000011
      2.03431      4.05728      3.18807        -0.000006     -0.000000      0.000003
      6.08025      4.05728      3.18807         0.000006     -0.000000      0.000003
      0.00000      2.03427      3.18703         0.000000     -0.000007      0.000011
      4.05728      2.03431      3.18807         0.000000     -0.000006      0.000003
      0.00000      6.08030      3.18703        -0.000000      0.000007      0.000011
      4.05728      6.08025      3.18807        -0.000000      0.000006      0.000003
      0.00000      0.00000      0.00000         0.000000     -0.000000      0.000000
    total drift:                                0.000000      0.000000     -0.000000

  FREE ENERGIE OF THE ION-ELECTRON SYSTEM (eV)
  free  energy   TOTEN  =      -207.11208640 eV

  energy  without entropy=     -207.11016373  energy(sigma->0) =     -207.11112507

 d Force = 0.1034438E-09[-0.112E-09, 0.319E-09]  d Energy = 0.1270564E-08-0.117E-08
 d Force =-0.2469655E-02[-0.247E-02,-0.247E-02]  d Ewald  =-0.2469655E-02 0.193E-09

 reached required accuracy - stopping structural energy minimisation